25
Energy =
Te   -0.4186906   -0.5507932    0.0740949 
O    -1.3919913   -3.8084327   -2.3290349 
N    -1.4102395   -2.2639891   -0.6293886 
C     0.7657638   -1.0238632   -1.5762011 
C     1.9080731   -0.3788912   -2.0227070 
H     2.2958940    0.4799011   -1.5050129 
C     0.2918006   -2.1401746   -2.2537721 
C    -0.9219979   -2.8350879   -1.7661435 
C     2.5612856   -0.8479912   -3.1470246 
H     3.4496842   -0.3419385   -3.4927096 
C    -2.5785817   -2.7000756    0.0135527 
C     2.0873899   -1.9601144   -3.8296249 
H     2.6055047   -2.3175401   -4.7051810 
C     0.9546999   -2.6048881   -3.3799437 
H     0.5530749   -3.4750299   -3.8756075 
C    -2.6627902   -2.6033143    1.3990734 
H    -1.8052527   -2.2585833    1.9579606 
C    -3.6734761   -3.1881353   -0.6953086 
H    -3.6132349   -3.2784067   -1.7645134 
C    -4.8181726   -3.5646891   -0.0201260 
H    -5.6579467   -3.9426831   -0.5825651 
C    -3.8162734   -2.9743786    2.0643900 
H    -3.8586777   -2.8941517    3.1395226 
C    -4.9014738   -3.4595144    1.3583017 
H    -5.8005373   -3.7557139    1.8749221 
