25
Energy =
Se   -0.1994529   -0.0594779    0.1000610 
O     0.2115893    3.6431988   -1.2409278 
N    -0.6870925    1.6876516   -0.4300575 
C     1.5633493    0.4617090   -0.3266871 
C     2.7235811   -0.2905569   -0.2252623 
H     2.6958649   -1.3054853    0.1289209 
C     1.6113003    1.7696891   -0.7858702 
C     0.3351601    2.4945976   -0.8617305 
C     3.9216964    0.2918101   -0.5917745 
H     4.8295588   -0.2868357   -0.5177117 
C    -2.0420400    2.0555791   -0.3912604 
C     3.9773587    1.6034630   -1.0511258 
H     4.9248606    2.0361234   -1.3295192 
C     2.8195359    2.3442960   -1.1478175 
H     2.8154671    3.3649858   -1.4973976 
C    -2.5796448    2.9376425   -1.3239613 
H    -1.9421346    3.3742989   -2.0703361 
C    -2.8711476    1.5037816    0.5793697 
H    -2.4560436    0.8385526    1.3207118 
C    -4.2159351    1.8201137    0.6143455 
H    -4.8432496    1.3826413    1.3751856 
C    -3.9235066    3.2537874   -1.2713953 
H    -4.3280102    3.9404378   -1.9986716 
C    -4.7502409    2.6993861   -0.3093040 
H    -5.7983003    2.9513739   -0.2795056 
