25
Energy =
S    -0.0162970    1.5032672   -0.0057923 
O    -0.2048927    5.3035918   -0.2231126 
N    -0.7384027    3.0696629    0.0049019 
C     1.5342102    2.2115013   -0.3213887 
C     2.7480268    1.5557196   -0.4866930 
H     2.7978630    0.4828859   -0.4286127 
C     1.4628045    3.5952355   -0.4034616 
C     0.1197160    4.1339877   -0.2105461 
C     3.8698304    2.3204791   -0.7297740 
H     4.8199884    1.8260840   -0.8613600 
C    -2.1201815    3.1692287    0.2510323 
C     3.8051643    3.7110013   -0.8093262 
H     4.7015375    4.2789990   -0.9998000 
C     2.5982606    4.3528528   -0.6457993 
H     2.5046282    5.4261879   -0.6996624 
C    -2.8681621    4.2124149   -0.2849100 
H    -2.3820068    4.9678738   -0.8735879 
C    -2.7513107    2.1977671    1.0198313 
H    -2.1736731    1.3959022    1.4513850 
C    -4.1127389    2.2657677    1.2465085 
H    -4.5872753    1.5043305    1.8454261 
C    -4.2266709    4.2726517   -0.0403583 
H    -4.7970946    5.0874027   -0.4582878 
C    -4.8584602    3.3048342    0.7211483 
H    -5.9198828    3.3606342    0.9030439 
