26
Energy =
Se    0.4299875   -1.7865874    0.0140495 
O     0.1514011    2.2679848   -0.0995215 
N    -0.4092247    0.0276845   -0.0822107 
C     2.0366461   -0.7871742    0.0128185 
C     3.3276263   -1.2971950    0.0512040 
H     3.4852494   -2.3621050    0.0875563 
C     1.8370660    0.5887651   -0.0327089 
C     0.4487513    1.0779308   -0.0695664 
C     4.3956117   -0.4228520    0.0447470 
H     5.3978372   -0.8245019    0.0764227 
C    -1.7957981    0.1097547   -0.0605121 
C     4.2019455    0.9537478   -0.0011545 
H     5.0509570    1.6200083   -0.0058728 
C     2.9189853    1.4561600   -0.0400814 
H     2.7156105    2.5152983   -0.0767197 
C    -2.5460801   -0.9893659   -0.4872017 
H    -2.0396333   -1.8580392   -0.8762428 
C    -2.4804665    1.2330395    0.4110943 
H    -1.9168620    2.0901700    0.7291849 
C    -3.8616314    1.2361171    0.4562863 
H    -4.3685620    2.1144079    0.8277560 
C    -3.9251796   -0.9741437   -0.4299802 
H    -4.4745515   -1.8420910   -0.7625962 
C    -4.5980066    0.1388854    0.0425708 
H    -5.6761027    0.1510830    0.0863940 
I     1.6944235   -4.4369817    0.1842848 
