21
Energy =
N    -0.1531378   -0.4676197   -0.0325294 
H    -1.8804563   -0.2506068    1.0815314 
H    -1.8154387   -0.7236040   -1.2344619 
H    -0.2769216   -0.9718793   -2.0321626 
H    -0.3896073   -0.0892214    1.9890672 
H     1.6912115   -0.4192511    0.9043629 
H     1.7382708   -0.7601421   -0.8140316 
C    -0.8297771   -1.1689817   -1.1157270 
C    -0.8841238   -0.6682385    1.2110690 
C     1.2036983   -0.9790951    0.1079941 
C    -0.9526439   -2.1648647    1.5894446 
C    -0.9272752   -2.6840771   -0.8358417 
C     1.2077767   -2.4935576    0.4128450 
C    -0.2420574   -2.9604477    0.4985591 
H    -1.9858840   -2.4957982    1.6769331 
H    -1.9663481   -3.0055654   -0.7925830 
H    -0.4474881   -3.2570066   -1.6272613 
H     1.7207696   -2.7007706    1.3502100 
H     1.7296941   -3.0451855   -0.3669866 
H    -0.4753132   -2.3458994    2.5507269 
H    -0.2798427   -4.0230005    0.7263780 
