19
Energy =
N     0.5394300    0.1337100   -0.9821981 
C    -0.5009158    0.0162606   -1.7995447 
C     0.2906044   -0.0696734    0.3071135 
C    -1.7809508   -0.2956606   -1.3987520 
H    -0.3029105    0.1834526   -2.8495866 
C    -0.9445469   -0.3872205    0.8262554 
H     1.1368495    0.0318392    0.9742359 
C    -2.0411503   -0.5126901   -0.0381867 
H    -2.5601957   -0.3664534   -2.1375410 
H    -1.0468347   -0.5312557    1.8877442 
N    -3.2836290   -0.8255778    0.4159038 
C    -4.3843975   -0.9171608   -0.5079887 
H    -5.2837401   -1.1778964    0.0360128 
H    -4.5605006    0.0283405   -1.0232910 
H    -4.2112132   -1.6847361   -1.2628829 
C    -3.5072733   -1.0111797    1.8264106 
H    -4.5493231   -1.2553663    1.9914604 
H    -2.9016577   -1.8259003    2.2244317 
H    -3.2746421   -0.1096756    2.3952510 
