45
Energy =
S    -0.1849502   -0.8167724   -0.3592477 
O    -1.3012290   -3.0036419   -3.2691815 
N    -1.2354764   -1.8097007   -1.2958307 
C     1.0696429   -1.0163446   -1.5341180 
C     2.3555830   -0.4949756   -1.4910862 
H     2.6770123    0.1018149   -0.6562483 
C     0.6612092   -1.8055460   -2.5993911 
C    -0.7113043   -2.2926919   -2.4833772 
C     3.2054420   -0.7756493   -2.5406098 
H     4.2084542   -0.3782454   -2.5227215 
C    -2.5332385   -2.0561045   -0.8089894 
C     2.7995773   -1.5635213   -3.6167198 
H     3.4881128   -1.7663958   -4.4209674 
C     1.5250860   -2.0844915   -3.6469058 
H     1.1760285   -2.7046437   -4.4575881 
C    -2.7591000   -2.0601764    0.5626902 
H    -1.9344355   -1.9170638    1.2428891 
C    -3.5953737   -2.2693682   -1.6809177 
H    -3.4213358   -2.2743621   -2.7408521 
C    -4.8608376   -2.4877286   -1.1709885 
H    -5.6779701   -2.6552865   -1.8550110 
C    -4.0326459   -2.2681139    1.0572310 
H    -4.1919416   -2.2694047    2.1240762 
C    -5.0904156   -2.4861135    0.1939441 
H    -6.0830161   -2.6543839    0.5800213 
N     1.1780211    1.2318372    1.1701052 
H     2.6613187    0.4363088    2.3885241 
H     0.3294591    0.3322392    2.8321128 
H     3.2422461    1.4054312    1.0418756 
H    -0.8182437    1.0391376    1.7052089 
C     2.4806505    1.3448508    1.8178581 
C     0.1406079    1.1949071    2.1960479 
H     1.6957658    2.3760031   -0.4858417 
H    -0.0218520    2.3016936   -0.1321409 
C     0.9631847    2.3989585    0.3193807 
C     2.5076328    2.6033364    2.7201504 
C     0.1562824    2.5145619    3.0031905 
C     1.0844724    3.6897827    1.1640193 
H     2.6150353    2.3340324    3.7688461 
N     1.2674829    3.3497424    2.5687619 
H     0.2635208    2.3249982    4.0691905 
H     3.3381886    3.2568394    2.4614309 
H    -0.7645517    3.0759868    2.8600321 
H     1.9346071    4.2912602    0.8486600 
H     0.1932932    4.3070035    1.0724876 
