29
Energy =
C    -2.0038436    3.0616102    0.5386825 
Se   -0.5774963    3.5807228   -0.6697634 
C    -1.5089199    5.1924445   -0.8982351 
H    -1.0996289    5.9398024   -1.5585513 
C    -2.6507460    5.3268838   -0.2162363 
H    -3.2828108    6.1988829   -0.2546900 
C    -3.0165793    4.1926066    0.6195382 
O    -4.0021041    4.1125003    1.3167498 
H    -1.5881802    2.8599904    1.5192397 
H    -2.4700154    2.1556715    0.1701505 
H     2.0092859   -3.6896106    1.9565215 
H     3.0275742   -3.1613239   -1.5934414 
C     2.1774379   -3.7669650   -1.2785935 
C     1.4959842   -4.1202784    1.0964697 
C     0.6086844    0.1169902   -1.0233109 
C    -0.0062057   -0.2018405    1.1201280 
C     1.1354354   -1.1503650   -1.1271354 
C     0.4859379   -1.4872146    1.1369454 
C     1.0878794   -2.0073833   -0.0180455 
N     0.0406322    0.6118072    0.0710222 
N     1.5946099   -3.2668626   -0.0598821 
H    -0.4703326    0.1959631    2.0128626 
H     0.6442833    0.7782508   -1.8790644 
H     1.5735797   -1.4623859   -2.0590659 
H     0.3989084   -2.0713079    2.0364217 
H     2.5276382   -4.7785143   -1.1153585 
H     1.9567031   -5.0744941    0.8734651 
H     0.4577631   -4.3010769    1.3787041 
H     1.4545254   -3.7845036   -2.0955273 
