12
Energy =
S     0.2645864   -1.1398365    0.0000000 
C    -0.6885897   -0.4345566   -1.2326419 
C    -1.7034457    0.2946178   -0.7104576 
C    -1.7034457    0.2946178    0.7104576 
C    -0.6885897   -0.4345566    1.2326419 
Se    2.7031394    0.5430010    0.0000000 
F     4.3292083    1.2660072    0.0000000 
H    -0.4432778   -0.6000367   -2.2647005 
H    -2.4264803    0.8186596   -1.3118477 
H    -2.4264803    0.8186596    1.3118477 
H    -0.4432778   -0.6000367    2.2647005 
H     3.2266530   -0.8265400    0.0000000 
