27
Energy =
S     1.5505234   -2.1832513    0.0002671 
C     2.2845944    1.7221837   -0.0001919 
H     1.6415046    2.5881662   -0.0004989 
N     0.0931466   -1.1527443   -0.0000074 
C     1.7013497    0.4611381   -0.0000204 
C     3.6549718    1.8241078   -0.0001511 
H     4.1299937    2.7930099   -0.0002168 
C    -1.1604888   -1.7347189   -0.0003306 
C     2.4769729   -0.7028268    0.0001063 
C    -3.5616096   -1.1792199   -0.0005821 
H    -3.7438657   -2.2425604   -0.0009546 
N    -0.6499004    1.0939944    0.0002157 
O    -1.3045128   -2.9412884   -0.0006269 
C    -4.2919349    1.1001420    0.0004201 
H    -5.0976537    1.8193288    0.0009250 
C     3.8659109   -0.5917895    0.0001220 
H     4.4648779   -1.4877003    0.0002566 
C    -1.9275378    0.6231454    0.0000855 
C     0.2895423    0.1935117    0.0001459 
C    -4.5868908   -0.2675421   -0.0002152 
H    -5.6133851   -0.5994013   -0.0002706 
C     4.4311993    0.6644705   -0.0000587 
H     5.5078942    0.7470929   -0.0002013 
C    -2.9939656    1.5387474    0.0005077 
H    -2.7533201    2.5902166    0.0008140 
C    -2.2348448   -0.7501590   -0.0003230 
Br    3.8274286   -3.9260530    0.0007835 
