20
Energy =
H     0.7499994   -4.3313857   -1.1148612 
H     0.2288414   -2.0696957   -1.4728312 
C    -0.1165276   -4.0248776   -0.5328643 
C    -0.5041404   -2.5578584   -0.8339058 
H    -0.9309192   -4.7053426   -0.7728702 
H    -1.4684427   -2.4893557   -1.3329132 
H     2.1134769   -3.4390806    0.6099489 
H     1.4185483   -1.2113113    0.4030532 
N     0.1980377   -4.1776746    0.8810870 
C     1.2481127   -3.2328623    1.2362762 
C     0.7456792   -1.7847748    1.0379980 
N    -0.5777276   -1.8026052    0.4153622 
C    -0.9898222   -3.8793488    1.6672098 
H     1.5400025   -3.4110393    2.2690737 
C    -1.5163863   -2.4666351    1.3154729 
H    -1.7408793   -4.6401388    1.4652533 
H     0.6615593   -1.2518736    1.9824844 
H    -2.4803262   -2.5230582    0.8130202 
H    -0.7245005   -3.9497798    2.7199721 
H    -1.6385924   -1.8502831    2.2039975 
