27
Energy =
Se    1.6376360   -2.4067056   -0.0005042 
C     2.2330950    1.6743458    0.0000482 
H     1.5471783    2.5066040    0.0000209 
N     0.0447175   -1.2121707   -0.0005242 
C     1.7032486    0.3899433   -0.0001914 
C     3.5979165    1.8509478    0.0003470 
H     4.0201976    2.8439217    0.0005231 
C    -1.2145525   -1.7554324   -0.0005005 
C     2.5400965   -0.7302827   -0.0001535 
C    -3.6059520   -1.1429584    0.0000704 
H    -3.8147911   -2.2016171    0.0000419 
N    -0.6312014    1.0490274   -0.0002548 
O    -1.3940829   -2.9618023   -0.0006441 
C    -4.2728845    1.1551648    0.0002076 
H    -5.0581594    1.8964700    0.0003991 
C     3.9172837   -0.5434772    0.0001752 
H     4.5726970   -1.3980514    0.0002713 
C    -1.9223987    0.6140514   -0.0001796 
C     0.2799244    0.1160401   -0.0003418 
C    -4.6061457   -0.2034660    0.0002725 
H    -5.6413876   -0.5071453    0.0004201 
C     4.4309886    0.7364461    0.0004259 
H     5.5031703    0.8665502    0.0007068 
C    -2.9630104    1.5582983   -0.0000286 
H    -2.6933592    2.6027135   -0.0000389 
C    -2.2694471   -0.7495526   -0.0001944 
I     4.0592224   -4.0478625   -0.0003740 
