12
Energy =
O     0.1681368   -0.0567357    0.0000000 
C    -0.6359114   -0.0347668   -1.0893465 
C    -1.9297220   -0.0025830   -0.7129673 
C    -1.9297220   -0.0025830    0.7129673 
C    -0.6359114   -0.0347668    1.0893465 
S     3.0068701    0.5508721    0.0000000 
Cl    5.0340872    0.3899765    0.0000000 
H    -0.1398188   -0.0427530   -2.0393677 
H    -2.7811548    0.0197799   -1.3654453 
H    -2.7811548    0.0197799    1.3654453 
H    -0.1398188   -0.0427530    2.0393677 
H     2.7641198   -0.7634670    0.0000000 
