26
Energy =
S    -0.2898601    0.1796814    0.0240934 
C     1.3496874    3.7584030    0.3131792 
H     0.9403202    4.7487007    0.4332301 
N    -1.4452415    1.4417074    0.2033148 
C     0.4827437    2.6773708    0.2421515 
C     2.7047148    3.5324215    0.2285806 
H     3.3955514    4.3582613    0.2806943 
C    -2.7923098    1.1190490    0.2313779 
C     0.9693794    1.3791974    0.0879054 
C    -5.0195034    2.1432228    0.4369615 
H    -5.4264247    1.1480132    0.3542264 
N    -1.6924688    3.7685747    0.4513884 
O    -3.1477086   -0.0376641    0.1300362 
C    -5.2492959    4.5132692    0.6897238 
H    -5.8847993    5.3774941    0.8066461 
C     2.3359903    1.1523467    0.0025917 
H     2.7161128    0.1537676   -0.1171166 
C    -3.0459480    3.5663708    0.4917060 
C    -0.9569394    2.7191849    0.3113820 
C    -5.8243193    3.2433689    0.5862351 
H    -6.8960605    3.1321791    0.6237072 
C     3.1880687    2.2344865    0.0744116 
H     4.2521797    2.0688519    0.0090350 
C    -3.8889034    4.6754498    0.6441506 
H    -3.4333238    5.6492592    0.7233927 
C    -3.6334311    2.2914049    0.3883762 
