19
Energy =
N     0.8833063   -0.0211179   -0.3701112 
C    -0.1837619    0.5302074   -0.9385644 
C     0.6371230   -0.8939478    0.6010107 
C    -1.4870854    0.2532560   -0.5926375 
H     0.0128285    1.2474820   -1.7240067 
C    -0.6200415   -1.2506634    1.0339281 
H     1.5031574   -1.3397431    1.0712405 
C    -1.7449559   -0.6710340    0.4298505 
H    -2.2858600    0.7539627   -1.1113994 
H    -0.7173694   -1.9668179    1.8311256 
N    -3.0097706   -0.9854996    0.8133657 
C    -4.1332076   -0.3435587    0.1805854 
H    -5.0497062   -0.7236631    0.6143432 
H    -4.1131026    0.7381038    0.3212942 
H    -4.1574604   -0.5436817   -0.8909728 
C    -3.2234413   -1.9209854    1.8875002 
H    -4.2877798   -2.0445478    2.0440411 
H    -2.7994424   -2.8988101    1.6573304 
H    -2.7802916   -1.5726318    2.8215685 
