26
Energy =
Te   -0.5566444   -0.3096934    0.0154859 
C     1.1996519    3.5960095    0.3214579 
H     0.7480439    4.5695385    0.4278095 
N    -1.7151808    1.4146169    0.2295052 
C     0.3612651    2.4907461    0.2481997 
C     2.5654507    3.4294776    0.2581860 
H     3.2189981    4.2852081    0.3146502 
C    -3.0762353    1.2615596    0.2664550 
C     0.8947941    1.2070268    0.1085329 
C    -5.1887937    2.5289936    0.4655617 
H    -5.7096115    1.5870159    0.3985641 
N    -1.6953667    3.7517995    0.4420766 
O    -3.5617473    0.1426289    0.1798421 
C    -5.1392153    4.9136503    0.6839856 
H    -5.6689785    5.8478039    0.7909922 
C     2.2706627    1.0496325    0.0485028 
H     2.7040403    0.0710571   -0.0539399 
C    -3.0625094    3.7124482    0.4918697 
C    -1.0897913    2.6151250    0.3147741 
C    -5.8591816    3.7182408    0.6015664 
H    -6.9364790    3.7342310    0.6450418 
C     3.0978195    2.1540429    0.1227195 
H     4.1674605    2.0189710    0.0753264 
C    -3.7692316    4.9151913    0.6307085 
H    -3.2031346    5.8306157    0.6936867 
C    -3.7960108    2.5140587    0.4099762 
