19
Energy =
H     2.1747667   -5.6851140    1.6187240 
H     1.3447703   -5.7903715   -1.9891983 
C     0.6541787   -6.0945696   -1.2024792 
C     1.2139010   -6.0235442    1.2306342 
C     0.2448123   -1.9234264   -1.1107504 
C     0.7528618   -1.8590312    1.0956733 
C     0.3763000   -3.2902744   -1.1620235 
C     0.9105972   -3.2225312    1.1604184 
C     0.7228874   -3.9943585    0.0024129 
N     0.4294413   -1.1986216   -0.0117557 
N     0.8663240   -5.3414154    0.0087305 
H     0.8933178   -1.2574421    1.9826317 
H    -0.0254633   -1.3737726   -2.0012591 
H     0.2083893   -3.7976734   -2.0955349 
H     1.1735213   -3.6751955    2.1001373 
H     0.8165760   -7.1454048   -0.9992348 
H     1.2846156   -7.0860142    1.0354752 
H     0.4618263   -5.8693251    2.0048685 
H    -0.3623535   -5.9738919   -1.5778488 
