36
Energy =
S     0.0680676    0.1966297    0.0751750 
O     0.1612571    3.6935024   -1.4201771 
N    -0.5427183    1.6929047   -0.5119457 
C     1.6844984    0.6911006   -0.3020010 
C     2.8553227   -0.0317860   -0.1131351 
H     2.8239862   -1.0233491    0.3029878 
C     1.7182780    1.9656496   -0.8490282 
C     0.4041494    2.5881201   -0.9840225 
C     4.0459234    0.5583759   -0.4827671 
H     4.9655360    0.0109656   -0.3451473 
C    -1.9310257    1.9211571   -0.4552157 
C     4.0879805    1.8405725   -1.0291217 
H     5.0357459    2.2729172   -1.3066391 
C     2.9218244    2.5488670   -1.2141526 
H     2.9122945    3.5424742   -1.6339899 
C    -2.5579553    2.7359458   -1.3915618 
H    -1.9743165    3.2196877   -2.1525544 
C    -2.6869183    1.3034702    0.5341855 
H    -2.2023686    0.6847323    1.2728201 
C    -4.0547023    1.4940071    0.5843833 
H    -4.6280238    1.0080540    1.3580953 
C    -3.9247230    2.9259185   -1.3214148 
H    -4.4018857    3.5625063   -2.0499507 
C    -4.6813864    2.3085858   -0.3405449 
H    -5.7478774    2.4616476   -0.2976211 
C     0.9427778   -4.3400192    2.4428366 
C     1.2301957   -3.0373610    2.0775709 
C     0.2496503   -5.1366735    1.5509355 
C     0.2036213   -3.2838064    0.0635840 
C    -0.1283199   -4.5987061    0.3352514 
N     0.8715557   -2.5133961    0.9126245 
H    -0.0816115   -2.8228515   -0.8717479 
H     1.2553285   -4.7153749    3.4037014 
H     1.7699110   -2.3849757    2.7498112 
H     0.0074376   -6.1580330    1.7995532 
H    -0.6715095   -5.1814596   -0.3907772 
