26
Energy =
Se   -0.3232235   -0.1457220    0.0257318 
C     1.3067584    3.5955404    0.2865616 
H     0.8636249    4.5727060    0.3948200 
N    -1.5160056    1.2989876    0.2160288 
C     0.4690462    2.4905718    0.2272513 
C     2.6698955    3.4157230    0.2066894 
H     3.3316312    4.2655331    0.2518327 
C    -2.8678547    1.0348855    0.2557562 
C     0.9985074    1.2084237    0.0873782 
C    -5.0578164    2.1473650    0.4634891 
H    -5.5057327    1.1686766    0.3967981 
N    -1.6667676    3.6325922    0.4321068 
O    -3.2718020   -0.1102680    0.1700687 
C    -5.1883642    4.5283286    0.6855702 
H    -5.7869678    5.4193163    0.7963581 
C     2.3699166    1.0288839    0.0084856 
H     2.7871949    0.0435674   -0.0966831 
C    -3.0275451    3.4885707    0.4858533 
C    -0.9769540    2.5490188    0.3019482 
C    -5.8157432    3.2820597    0.6033197 
H    -6.8908973    3.2158485    0.6499123 
C     3.1946619    2.1348447    0.0687317 
H     4.2633195    1.9989339    0.0081595 
C    -3.8225770    4.6337833    0.6280356 
H    -3.3271251    5.5892435    0.6897312 
C    -3.6678310    2.2381440    0.4039176 
