28
Energy =
C    -3.3702626    3.1487801   -0.5725829 
C    -2.1314825    2.5366927   -0.6872406 
C    -1.9708779    1.2076714   -0.3133422 
C    -3.0507537    0.4934858    0.1803251 
C    -4.2821301    1.1118116    0.2917331 
C    -4.4465362    2.4387285   -0.0833755 
H    -3.4528949    4.1804561   -0.8778800 
H    -2.9427464   -0.5343961    0.4783586 
H    -5.1223691    0.5531855    0.6748927 
H    -5.4124847    2.9093272    0.0077619 
N     0.1536642    2.5163646   -1.2229236 
C    -0.9655459    3.2793941   -1.2178695 
O    -1.0207659    4.4372669   -1.6026651 
C     1.3805263    3.0338337   -1.7813650 
H     1.2610469    4.1148736   -1.8401954 
H     1.5194876    2.6701644   -2.8010480 
C     2.5826758    2.6717964   -0.9568435 
C     3.7191297    2.1462540   -1.5515154 
C     2.5755580    2.8665198    0.4192871 
C     4.8332075    1.8287670   -0.7922488 
H     3.7296422    1.9834516   -2.6194665 
C     3.6844321    2.5503834    1.1798261 
H     1.6872320    3.2620837    0.8884328 
C     4.8182070    2.0303883    0.5756778 
H     5.7105176    1.4211961   -1.2700657 
H     3.6661289    2.7094860    2.2468280 
H     5.6839663    1.7830939    1.1698596 
Te   -0.0046231    0.5535732   -0.5692666 
