21
Energy =
N     1.0406168    1.5182758    0.6052204 
H    -0.0177092    0.8789058    2.2779250 
H     2.3424021    0.6947068    1.9816108 
H     3.0645201    1.0404367    0.4268135 
H    -0.8814665    1.9701232    1.2156272 
H     0.0563695    2.5522231   -0.9055938 
H     1.7987435    2.4795260   -1.0667286 
C     2.3829241    1.4281082    1.1797433 
C     0.0837082    1.7833518    1.6812177 
C     0.9904173    2.6229718   -0.3536232 
C     0.5330191    2.9770631    2.5415201 
C     2.8508281    2.8015590    1.6979326 
C     1.1296056    3.9799797    0.3618355 
C     1.6295034    3.7122815    1.7781318 
H     0.9152974    2.6400624    3.5036813 
H     3.3206890    2.7023592    2.6739450 
H     3.5912427    3.2360828    1.0281112 
H     0.1725770    4.4975610    0.4010797 
H     1.8215211    4.6255508   -0.1745756 
H    -0.3057045    3.6394116    2.7435683 
H     1.8818422    4.6447442    2.2758084 
