12
Energy =
O     0.1606590    0.0451757    0.0000000 
C    -0.6433271    0.0175049   -1.0908134 
C    -1.9357429   -0.0294031   -0.7131160 
C    -1.9357429   -0.0294031    0.7131160 
C    -0.6433271    0.0175049    1.0908134 
Se    2.9663245    0.5382170    0.0000000 
Cl    5.1365809    0.3946094    0.0000000 
H    -0.1465636    0.0385612   -2.0402481 
H    -2.7872326   -0.0596745   -1.3651649 
H    -2.7872326   -0.0596745    1.3651649 
H    -0.1465636    0.0385612    2.0402481 
H     2.7621678   -0.9119793    0.0000000 
