20
Energy =
N     0.9607105    1.5284301    1.1528173 
H     1.9875908    0.2660910    2.4345113 
H    -0.2560676    0.9068780    2.7188065 
H     2.9383535    0.8662594    1.0921535 
H    -0.9721598    2.1004668    1.6466472 
C     2.2006870    1.1487844    1.8368715 
C    -0.0578336    1.8242618    2.1677170 
H     1.9262973    2.5153877   -0.4074363 
H     0.2490260    2.9589700   -0.1684840 
C     1.1787057    2.7351545    0.3485676 
C     2.6940352    2.3322741    2.7024589 
C     0.4425741    2.9551982    3.0935125 
C     1.6274157    3.8941283    1.2697277 
H     2.8138046    2.0337802    3.7412326 
N     1.7415181    3.4302533    2.6440360 
H     0.5419225    2.6067623    4.1187477 
H     3.6564676    2.6978893    2.3522148 
H    -0.2504178    3.7930289    3.0958827 
H     2.5918874    4.2886979    0.9589535 
H     0.9131723    4.7136917    1.2444528 
