45
Energy =
S    -0.3003805    0.6988837    0.0060440 
C     1.0977007    4.2963554    0.8377258 
H     0.6475738    5.2761692    0.8418761 
N    -1.4816806    1.9390895   -0.1503107 
C     0.3188722    3.2014498    0.4902307 
C     2.4187153    4.0957591    1.1660003 
H     3.0420653    4.9320582    1.4385229 
C    -2.7690815    1.5994889   -0.5363034 
C     0.8584608    1.9148107    0.4712102 
C    -4.9728304    2.5905211   -0.9966197 
H    -5.3164034    1.5917983   -1.2143238 
N    -1.8375044    4.2578618    0.0493275 
O    -3.0582582    0.4420923   -0.7606114 
C    -5.3133126    4.9514243   -0.7877211 
H    -5.9708774    5.8044903   -0.8540714 
C     2.1919262    1.7123072    0.8038780 
H     2.6057880    0.7195536    0.7911833 
C    -3.1354662    4.0377285   -0.3240465 
C    -1.0738384    3.2206640    0.1210027 
C    -5.8060142    3.6764035   -1.0808295 
H    -6.8365317    3.5502978   -1.3716513 
C     2.9545457    2.8090995    1.1472525 
H     3.9914020    2.6630786    1.4076810 
C    -4.0061400    5.1323362   -0.4169418 
H    -3.6140804    6.1102755   -0.1886972 
C    -3.6400540    2.7578706   -0.6207521 
H     2.0013891   -5.8808722   -2.1510971 
H     0.9156716   -6.3453426    1.2908126 
C     1.9706909   -6.3771043    1.0153474 
C     2.0323425   -4.1723929    0.0127600 
C     2.7154769   -6.0584910   -1.3457940 
C     1.3376030   -2.2374265    1.2480260 
C     2.0114046   -1.9491777   -0.8869481 
C     1.5510841   -3.5950963    1.1974883 
C     2.2615483   -3.2911260   -1.0546440 
N     1.5596934   -1.4030533    0.2374627 
N     2.2594782   -5.5057950   -0.0955376 
H     2.1795392   -1.2704108   -1.7117504 
H     0.9571008   -1.7927624    2.1572590 
H     1.3378236   -4.1921959    2.0666364 
H     2.6224939   -3.6425754   -2.0052466 
H     2.2183051   -7.3949330    0.7413667 
H     2.8418107   -7.1281804   -1.2355357 
H     3.6740792   -5.6337584   -1.6440819 
H     2.5578688   -6.1111738    1.8944213 
