21
Energy =
C     0.1306457    0.9822529   -2.0271104 
C    -0.1922058   -1.2553307   -1.8126507 
C     0.0146499   -1.4689787   -3.1636500 
C     0.2934081   -0.3797994   -3.9674755 
C     0.3531116    0.8734961   -3.3880603 
H     0.1708572    1.9461455   -1.5383281 
H    -0.4105806   -2.0857324   -1.1552489 
H    -0.0420035   -2.4657236   -3.5701624 
H     0.4616866   -0.5056392   -5.0255812 
H     0.5681608    1.7520497   -3.9744867 
N    -0.1376426   -0.0566433   -1.2470852 
H     0.9252825   -0.6358760    1.4725346 
Se   -0.6338065    1.3357711    1.5769689 
C    -0.1310222    0.6737890    4.1947205 
C     0.1931940   -0.5631220    3.4982217 
C    -0.0064312   -0.4525593    1.9943565 
C    -0.5435605    1.6797950    3.4181589 
O     0.5794523   -1.5875073    4.0114012 
H    -0.0326091    0.7347983    5.2660469 
H    -0.8216453    2.6574328    3.7766941 
H    -0.7389413   -1.1786188    1.6607361 
