12
Energy =
O     0.2052068    0.1368788    0.0000000 
C    -0.5966468    0.0663324   -1.0950137 
C    -1.8821351   -0.0469057   -0.7136129 
C    -1.8821351   -0.0469057    0.7136129 
C    -0.5966468    0.0663324    1.0950137 
Te    2.8984011    0.5555614    0.0000000 
F     4.8198085    0.3780628    0.0000000 
H    -0.0975589    0.1099571   -2.0423696 
H    -2.7316356   -0.1217115   -1.3645245 
H    -2.7316356   -0.1217115    1.3645245 
H    -0.0975589    0.1099571    2.0423696 
H     2.6925363   -1.0858477    0.0000000 
