49
Energy =
C    -3.1586481    3.5802477    0.3511437 
C    -2.0968650    2.8666633   -0.1813221 
C    -1.9565149    1.5122416    0.0874849 
C    -2.8750840    0.8542567    0.8889760 
C    -3.9297149    1.5745535    1.4148440 
C    -4.0759840    2.9329450    1.1514268 
H    -3.2384012    4.6310251    0.1193453 
H    -2.7717432   -0.1964928    1.0933037 
H    -4.6523137    1.0708485    2.0383437 
H    -4.9080398    3.4747624    1.5716153 
N    -0.1643645    2.5119345   -1.4048531 
C    -1.0734387    3.4629297   -1.0540949 
O    -1.0323437    4.6261497   -1.4152431 
C     0.9248287    2.7884010   -2.3068685 
H     0.9304374    3.8699106   -2.4349489 
H     0.7312051    2.3443939   -3.2842693 
C     2.2484538    2.2989504   -1.7883215 
C     3.1236667    1.6198958   -2.6207533 
C     2.6164847    2.5263092   -0.4685969 
C     4.3509366    1.1827233   -2.1507972 
H     2.8396184    1.4287368   -3.6454289 
C     3.8388197    2.0896120    0.0041920 
H     1.9307843    3.0405602    0.1878492 
C     4.7111351    1.4165412   -0.8364331 
H     5.0218494    0.6551910   -2.8107790 
H     4.1130553    2.2736177    1.0313398 
H     5.6649689    1.0745411   -0.4664287 
Se   -0.4302825    0.7791293   -0.7412576 
H     1.9599642   -3.3586810    0.7227530 
H     1.2167773   -1.4897543   -0.4640041 
C     1.0077713   -3.5490418    0.2302991 
C     0.4504730   -2.2601289   -0.4005344 
H     1.1865000   -4.3027151   -0.5334767 
H     0.0870960   -2.4380876   -1.4103505 
H     0.8343284   -3.0775662    2.9890852 
H     0.6516912   -1.0613792    1.8145635 
C    -0.0122141   -4.0461330    1.2492808 
C    -0.0762787   -3.0404578    2.3951713 
H     0.2658850   -5.0290744    1.6201294 
C    -0.2685548   -1.6401329    1.7829929 
N    -0.6700855   -1.7344648    0.3796148 
C    -1.3782412   -4.0980021    0.5717802 
H    -0.9024624   -3.2906552    3.0591042 
C    -1.8032753   -2.6504089    0.2576144 
H    -1.3145113   -4.6897961   -0.3399702 
H    -1.0220347   -1.0711772    2.3228478 
H    -2.2127870   -2.5617161   -0.7455913 
H    -2.1096965   -4.5802389    1.2166977 
H    -2.5728511   -2.3209667    0.9525247 
