46
Energy =
Se   -0.3232235   -0.1457220    0.0257318 
C     1.3067584    3.5955404    0.2865616 
H     0.8636249    4.5727060    0.3948200 
N    -1.5160056    1.2989876    0.2160288 
C     0.4690462    2.4905718    0.2272513 
C     2.6698955    3.4157230    0.2066894 
H     3.3316312    4.2655331    0.2518327 
C    -2.8678547    1.0348855    0.2557562 
C     0.9985074    1.2084237    0.0873782 
C    -5.0578164    2.1473650    0.4634891 
H    -5.5057327    1.1686766    0.3967981 
N    -1.6667676    3.6325922    0.4321068 
O    -3.2718020   -0.1102680    0.1700687 
C    -5.1883642    4.5283286    0.6855702 
H    -5.7869678    5.4193163    0.7963581 
C     2.3699166    1.0288839    0.0084856 
H     2.7871949    0.0435674   -0.0966831 
C    -3.0275451    3.4885707    0.4858533 
C    -0.9769540    2.5490188    0.3019482 
C    -5.8157432    3.2820597    0.6033197 
H    -6.8908973    3.2158485    0.6499123 
C     3.1946619    2.1348447    0.0687317 
H     4.2633195    1.9989339    0.0081595 
C    -3.8225770    4.6337833    0.6280356 
H    -3.3271251    5.5892435    0.6897312 
C    -3.6678310    2.2381440    0.4039176 
N     1.3960788   -2.2502460   -0.2748459 
H    -0.4012822   -2.8895205   -1.0954690 
H     1.4387161   -2.0715803   -2.3388869 
H     2.9322098   -1.6260126   -1.5325676 
H    -0.2668676   -3.0895942    0.6405534 
H     1.7326639   -2.4913833    1.7569879 
H     3.1113970   -1.8975226    0.8478114 
C     2.1214843   -2.3512172   -1.5400154 
C     0.2739853   -3.1915081   -0.2977806 
C     2.2865984   -2.6063945    0.8283152 
C     0.8018565   -4.6290474   -0.5047726 
C     2.6582854   -3.7925728   -1.7174161 
C     2.7979522   -4.0552142    0.6363092 
N     2.2551691   -4.6196407   -0.5900640 
H     0.4088431   -5.0643882   -1.4206628 
H     2.2744916   -4.2451994   -2.6289143 
H     3.7444643   -3.8027852   -1.7769363 
H     2.4980510   -4.6908365    1.4664061 
H     3.8837193   -4.0836087    0.5755235 
H     0.5108348   -5.2772854    0.3185723 
