27
Energy =
Se    1.6745094   -2.4327654   -0.0003639 
C     2.2329981    1.6564496   -0.0007063 
H     1.5421125    2.4848607   -0.0014617 
N     0.0564388   -1.2382301   -0.0022992 
C     1.7100385    0.3691311   -0.0008606 
C     3.5968016    1.8393615    0.0001663 
H     4.0136568    2.8348718    0.0003285 
C    -1.2080175   -1.7709425   -0.0024131 
C     2.5519930   -0.7471018   -0.0002366 
C    -3.6009594   -1.1466874    0.0000536 
H    -3.8152925   -2.2042231    0.0002220 
N    -0.6191248    1.0293615   -0.0018587 
O    -1.3997116   -2.9761962   -0.0027457 
C    -4.2602798    1.1543827    0.0014578 
H    -5.0428991    1.8989411    0.0025949 
C     3.9292185   -0.5552955    0.0009385 
H     4.5790392   -1.4138912    0.0019693 
C    -1.9114809    0.6021348   -0.0014753 
C     0.2881759    0.0905267   -0.0018429 
C    -4.5981275   -0.2032268    0.0016594 
H    -5.6347996   -0.5026729    0.0031038 
C     4.4354713    0.7281131    0.0010712 
H     5.5066612    0.8667662    0.0020820 
C    -2.9486809    1.5515029   -0.0001042 
H    -2.6751177    2.5950917    0.0001254 
C    -2.2618922   -0.7604548   -0.0015852 
Cl    3.8592687   -3.7498075    0.0021806 
