13
Energy =
Te   -2.0341601   -0.4025745    0.0000000 
F    -1.8449077    1.4946001    0.0000000 
F    -3.9494252   -0.1510736    0.0000000 
C     0.6238265   -0.1578170   -0.6053566 
C     0.6238265   -0.1578170    0.6053566 
C     0.7882314   -0.0937857   -2.0476565 
H     1.8425664    0.0094505   -2.2953393 
H     0.4062448   -0.9893979   -2.5280869 
H     0.2533773    0.7610742   -2.4520550 
C     0.7882314   -0.0937857    2.0476565 
H     0.4062448   -0.9893979    2.5280869 
H     1.8425664    0.0094505    2.2953393 
H     0.2533773    0.7610742    2.4520550 
