13
Energy =
S    -2.2114060   -0.0927383    0.0000000 
Cl   -1.9291978    1.9049105    0.0000000 
Cl   -4.2347356   -0.2377407    0.0000000 
C     0.8551951   -0.1850743   -0.6000369 
C     0.8551951   -0.1850743    0.6000369 
C     0.8381946   -0.1577910   -2.0494146 
H     1.7897133    0.1905251   -2.4438923 
H     0.6454740   -1.1464191   -2.4587707 
H     0.0590927    0.5115436   -2.4092950 
C     0.8381946   -0.1577910    2.0494146 
H     0.6454740   -1.1464191    2.4587707 
H     1.7897133    0.1905251    2.4438923 
H     0.0590927    0.5115436    2.4092950 
