19
Energy =
H     2.0013891   -5.8808722   -2.1510971 
H     0.9156716   -6.3453426    1.2908126 
C     1.9706909   -6.3771043    1.0153474 
C     2.0323425   -4.1723929    0.0127600 
C     2.7154769   -6.0584910   -1.3457940 
C     1.3376030   -2.2374265    1.2480260 
C     2.0114046   -1.9491777   -0.8869481 
C     1.5510841   -3.5950963    1.1974883 
C     2.2615483   -3.2911260   -1.0546440 
N     1.5596934   -1.4030533    0.2374627 
N     2.2594782   -5.5057950   -0.0955376 
H     2.1795392   -1.2704108   -1.7117504 
H     0.9571008   -1.7927624    2.1572590 
H     1.3378236   -4.1921959    2.0666364 
H     2.6224939   -3.6425754   -2.0052466 
H     2.2183051   -7.3949330    0.7413667 
H     2.8418107   -7.1281804   -1.2355357 
H     3.6740792   -5.6337584   -1.6440819 
H     2.5578688   -6.1111738    1.8944213 
