19
Energy =
H     2.5461786   -5.9924827   -2.0132627 
H     1.5377405   -6.4922660    1.4481420 
C     2.5734196   -6.2810620    1.1795471 
C     2.1167868   -4.1958473    0.0350670 
C     3.2653481   -5.9376428   -1.1952255 
C     0.9514258   -2.4160062    1.1439287 
C     1.5786076   -2.1047816   -1.0104142 
C     1.4868313   -3.6807874    1.1794353 
C     2.1470356   -3.3531051   -1.0877603 
N     0.9893100   -1.6209334    0.0789081 
N     2.6609060   -5.4362246    0.0141943 
H     1.5908740   -1.4531446   -1.8726195 
H     0.4585902   -2.0150885    2.0182881 
H     1.4074817   -4.2573250    2.0840413 
H     2.6006472   -3.6651755   -2.0118050 
H     3.0682589   -7.2215294    0.9731117 
H     3.6478759   -6.9338967   -1.0132711 
H     4.0963110   -5.3093676   -1.5153224 
H     3.0609344   -5.8239948    2.0404292 
