21
Energy =
N     1.3107094   -2.1455200   -0.2253990 
H    -0.3417339   -2.8388955   -1.2580354 
H     1.5282046   -1.7163895   -2.2487572 
H     3.0005036   -1.6177259   -1.3039089 
H    -0.5014056   -2.8897951    0.4827793 
H     1.4972196   -2.6319621    1.7734503 
H     2.8607262   -1.7545944    1.1161795 
C     2.0963232   -2.2020679   -1.4591776 
C     0.1865014   -3.0795699   -0.3382689 
C     2.1472292   -2.5476666    0.9058546 
C     0.6776265   -4.5370349   -0.3365821 
C     2.4470073   -3.6572974   -1.8215109 
C     2.8649024   -3.8781424    0.6101330 
C     2.1808395   -4.5211915   -0.5925492 
H     0.1627284   -5.1137188   -1.1015012 
H     1.8394847   -4.0060557   -2.6548917 
H     3.4877269   -3.7340750   -2.1286535 
H     2.8202417   -4.5367505    1.4746216 
H     3.9177875   -3.7093764    0.3891804 
H     0.4704645   -5.0148233    0.6195104 
H     2.5531926   -5.5301435   -0.7480359 
