20
Energy =
C    -1.9458948   -0.9655337   -1.6374099 
C    -0.3129244   -1.4932802   -0.1516264 
C    -0.1885240   -2.7735311   -0.6616581 
C    -0.9986569   -3.1437017   -1.7181453 
C    -1.8972980   -2.2203494   -2.2183202 
H    -2.6370119   -0.2196905   -2.0044620 
H     0.3095730   -1.1671066    0.6704097 
H     0.5286137   -3.4583145   -0.2386483 
H    -0.9306427   -4.1324891   -2.1443562 
H    -2.5491119   -2.4625964   -3.0421619 
N    -1.1729404   -0.5998583   -0.6232789 
S     1.2322544    1.8492847   -0.0765198 
C     0.1853446    1.8181961    1.2672927 
C     0.7075782    2.5031019    2.3197398 
C     1.9758501    3.0599757    2.0300341 
C     2.3845240    2.7833801    0.7625465 
H     0.2044014    2.6075013    3.2661888 
H     2.5568202    3.6379996    2.7286792 
H     3.2984525    3.0799191    0.2823250 
H    -0.7504069    1.2970930    1.1893712 
