19
Energy =
N    -0.9134130    0.4825936    0.0000000 
C    -1.5472164    0.2392133   -1.1395512 
C    -1.5472164    0.2392133    1.1395512 
C    -2.8367389   -0.2544684   -1.1895372 
H    -0.9965549    0.4488755   -2.0461130 
C    -2.8367389   -0.2544684    1.1895372 
H    -0.9965549    0.4488755    2.0461130 
C    -3.4930372   -0.5051037    0.0000000 
H    -3.3156146   -0.4322370   -2.1375973 
H    -3.3156146   -0.4322370    2.1375973 
Te    1.7792660    1.6215573    0.0000000 
N     3.7788673    1.7889327    0.0000000 
C     4.3084054    0.6120883    0.0000000 
C     3.5050691   -0.5773755    0.0000000 
C     2.1708494   -0.3811406    0.0000000 
H     5.3924055    0.5392562    0.0000000 
H     3.9539572   -1.5592449    0.0000000 
H     1.4131601   -1.1436587    0.0000000 
H    -4.5031811   -0.8816799    0.0000000 
