19
Energy =
N     0.8431567    0.3778530   -0.0524003 
C    -0.2274844    0.8384892   -0.6906125 
C     0.6197090   -0.5623919    0.8595977 
C    -1.5147672    0.4044327   -0.4704647 
H    -0.0464644    1.6088995   -1.4278093 
C    -0.6204398   -1.0747144    1.1654385 
H     1.4899589   -0.9315927    1.3849666 
C    -1.7500081   -0.5916750    0.4886358 
H    -2.3194314    0.8390590   -1.0373511 
H    -0.7017253   -1.8375417    1.9199190 
N    -2.9979834   -1.0603145    0.7472223 
C    -4.1311484   -0.5135589    0.0454455 
H    -5.0312787   -1.0126705    0.3817765 
H    -4.2447581    0.5553229    0.2315496 
H    -4.0444503   -0.6613213   -1.0312686 
C    -3.1930908   -2.0648396    1.7613027 
H    -4.2458361   -2.3117482    1.8181496 
H    -2.6433332   -2.9778129    1.5312743 
H    -2.8718045   -1.7155968    2.7435772 
