19
Energy =
N    -0.8109504   -0.3900533    0.1325679 
C    -1.8905957    0.1450613   -0.4226902 
C    -0.9907075   -1.2466491    1.1297056 
C    -3.1799864   -0.1488480   -0.0167234 
H    -1.7162076    0.8437472   -1.2290636 
C    -2.2379610   -1.6058367    1.6083551 
H    -0.0946951   -1.6631525    1.5683702 
C    -3.3559365   -1.0443635    1.0210994 
H    -4.0214549    0.3164357   -0.5040269 
H    -2.3251933   -2.3072108    2.4222850 
S     1.8235459    1.3957003    0.3151339 
N     3.2384630    2.2173713    0.2581908 
C     3.9754153    1.7415994   -0.7155466 
C     3.4185308    0.6818564   -1.4613891 
C     2.1800969    0.3727171   -0.9827446 
H     4.9477540    2.1763149   -0.8912357 
H     3.9013307    0.1895080   -2.2873028 
H     1.4842394   -0.3754334   -1.3117221 
H    -4.3456876   -1.2987642    1.3667372 
