12
Energy =
O     0.2290157    0.1188483    0.0000000 
C    -0.5729570    0.0574998   -1.0928385 
C    -1.8610130   -0.0433737   -0.7133418 
C    -1.8610130   -0.0433737    0.7133418 
C    -0.5729570    0.0574998    1.0928385 
Se    2.8868455    0.4897018    0.0000000 
F     4.6489938    0.3436736    0.0000000 
H    -0.0754114    0.0992258   -2.0410726 
H    -2.7108050   -0.1090427   -1.3649523 
H    -2.7108050   -0.1090427    1.3649523 
H    -0.0754114    0.0992258    2.0410726 
H     2.6755178   -0.9608420    0.0000000 
