12
Energy =
O     0.1426904   -0.1159352    0.0000000 
C    -0.6600863   -0.0654989   -1.0889465 
C    -1.9521963    0.0125954   -0.7129295 
C    -1.9521963    0.0125954    0.7129295 
C    -0.6600863   -0.0654989    1.0889465 
S     3.0200674    0.5842401    0.0000000 
Br    5.2054969    0.4216727    0.0000000 
H    -0.1649812   -0.0910856   -2.0391866 
H    -2.8022492    0.0651132   -1.3654970 
H    -2.8022492    0.0651132    1.3654970 
H    -0.1649812   -0.0910856    2.0391866 
H     2.7907711   -0.7322260    0.0000000 
