21
Energy =
H     1.8109447   -3.7136712    1.2478138 
H     1.5163006   -1.7259521    0.0475116 
C     0.9644369   -3.7745250    0.5660297 
C     0.6728886   -2.4047758   -0.0666018 
H     1.2216897   -4.4997620   -0.2023139 
H     0.4698682   -2.4923310   -1.1316195 
H     0.2842451   -3.4700115    3.2802017 
H     0.6230445   -1.4014241    2.2359062 
C    -0.2842558   -4.2089527    1.3258250 
C    -0.4667972   -3.2747123    2.5182592 
H    -0.1918036   -5.2392504    1.6579817 
C    -0.3503126   -1.8283887    2.0070899 
N    -0.5064435   -1.7832000    0.5491843 
C    -1.4844865   -4.0501472    0.3976265 
H    -1.4401172   -3.4458117    2.9754699 
C    -1.6955809   -2.5456955    0.1526943 
H    -1.2979344   -4.5731412   -0.5388169 
H    -1.0955575   -1.1834380    2.4630447 
H    -1.9047454   -2.3293704   -0.8916661 
H    -2.3753234   -4.4907173    0.8393562 
H    -2.5357860   -2.1767971    0.7336644 
