18
Energy =
O     2.0102454    0.3208144    0.0000000 
S    -1.3443619   -0.3319599    0.0000000 
C     2.1831370   -0.4448202   -1.1627076 
C     2.1831370   -0.4448202    1.1627076 
H     2.0207739    0.2079558   -2.0136369 
H     3.1944887   -0.8572707   -1.2162820 
H     1.4646347   -1.2666310   -1.2037558 
H     2.0207739    0.2079558    2.0136369 
H     1.4646347   -1.2666310    1.2037558 
H     3.1944887   -0.8572707    1.2162820 
C    -1.2243711    1.4593256    0.0000000 
C    -3.1322179   -0.5050732    0.0000000 
H    -0.1665784    1.6980010    0.0000000 
H    -1.6885518    1.8788774   -0.8881581 
H    -1.6885518    1.8788774    0.8881581 
H    -3.3560117   -1.5667634    0.0000000 
H    -3.5678347   -0.0552836    0.8878429 
H    -3.5678347   -0.0552836   -0.8878429 
