20
Energy =
N     1.1780211    1.2318372    1.1701052 
H     2.6613187    0.4363088    2.3885241 
H     0.3294591    0.3322392    2.8321128 
H     3.2422461    1.4054312    1.0418756 
H    -0.8182437    1.0391376    1.7052089 
C     2.4806505    1.3448508    1.8178581 
C     0.1406079    1.1949071    2.1960479 
H     1.6957658    2.3760031   -0.4858417 
H    -0.0218520    2.3016936   -0.1321409 
C     0.9631847    2.3989585    0.3193807 
C     2.5076328    2.6033364    2.7201504 
C     0.1562824    2.5145619    3.0031905 
C     1.0844724    3.6897827    1.1640193 
H     2.6150353    2.3340324    3.7688461 
N     1.2674829    3.3497424    2.5687619 
H     0.2635208    2.3249982    4.0691905 
H     3.3381886    3.2568394    2.4614309 
H    -0.7645517    3.0759868    2.8600321 
H     1.9346071    4.2912602    0.8486600 
H     0.1932932    4.3070035    1.0724876 
