21
Energy =
C    -0.6114188    0.7036088   -1.3481217 
C    -0.8578826    2.2234552   -1.2355458 
H     0.2553385    0.4972388   -1.9749398 
H    -1.4638934    0.1989763   -1.7979880 
H    -0.2518017    2.7697478   -1.9556522 
H    -1.8989970    2.4643676   -1.4447397 
C     0.8942298    0.6249224    0.4919505 
H     1.0117570    0.2222155    1.4958639 
H     1.7107941    0.2252730   -0.1074653 
C     0.9077460    2.1675851    0.5024314 
H     1.2296689    2.5456260    1.4707014 
H     1.6028024    2.5567326   -0.2401718 
C    -1.4762196    1.9720629    1.1520052 
H    -1.1779125    2.1795918    2.1784690 
H    -2.4795692    2.3733310    1.0232508 
C    -1.4490116    0.4559420    0.8653035 
H    -1.3239517   -0.1182272    1.7810691 
H    -2.3780666    0.1269842    0.4043343 
N    -0.3614167    0.1098398   -0.0413809 
C    -0.5059111    2.6478065    0.1872574 
H    -0.5681377    3.7287945    0.2844144 
