21
Energy =
N     1.1946550    1.3878074    0.6520749 
H     0.3540988    0.6048201    2.3823625 
H     2.6932874    0.8126323    1.9522543 
H     3.2558205    1.2964103    0.3665855 
H    -0.7493943    1.4781555    1.3408475 
H    -0.0303016    2.2091916   -0.8071687 
H     1.6892675    2.4083335   -1.0778032 
C     2.5534437    1.5449429    1.1601750 
C     0.2532731    1.4939050    1.7628542 
C     0.9119971    2.4434078   -0.3164873 
C     0.4947350    2.7794931    2.5772356 
C     2.7917907    2.9787568    1.6763740 
C     0.8689147    3.8261741    0.3640634 
C     1.4355109    3.6708730    1.7722657 
H     0.9423475    2.5500014    3.5430442 
H     3.2819154    2.9621656    2.6476030 
H     3.4404985    3.5323739    0.9992663 
H    -0.1520718    4.2006284    0.4174162 
H     1.4474806    4.5532272   -0.2020623 
H    -0.4439408    3.2934116    2.7732328 
H     1.5388169    4.6421695    2.2489837 
