19
Energy =
H     3.1136711   -5.9599910   -1.8441633 
H     2.1233954   -6.4270172    1.6511883 
C     3.0863853   -6.0005733    1.3701140 
C     2.1826232   -4.1825914    0.0511175 
C     3.7613275   -5.6774432   -1.0140850 
C     0.6071242   -2.6447253    1.0051980 
C     1.2183009   -2.3531965   -1.1658024 
C     1.4135618   -3.7458064    1.1435440 
C     2.0551896   -3.4396814   -1.1352961 
N     0.5014330   -1.9437965   -0.1215171 
N     2.9982716   -5.2569034    0.1364264 
H     1.1115380   -1.7715612   -2.0697935 
H     0.0119598   -2.2959354    1.8364759 
H     1.4415530   -4.2562487    2.0896623 
H     2.5994245   -3.7039528   -2.0243652 
H     3.7920514   -6.8116008    1.2446339 
H     4.3618759   -6.5368724   -0.7453815 
H     4.4311886   -4.8893878   -1.3570605 
H     3.4336039   -5.3723515    2.1900342 
