16
Energy =
Se    1.9115274    0.6225366    0.0000000 
S    -1.5693200   -0.0899135    0.0000000 
C     1.8354953   -0.6682777   -1.4489284 
C     1.8354953   -0.6682777    1.4489284 
H     1.8547394   -0.1100286   -2.3776759 
H     2.6959002   -1.3254847   -1.4032096 
H     0.9153190   -1.2384116   -1.3882144 
H     1.8547394   -0.1100286    2.3776759 
H     0.9153190   -1.2384116    1.3882144 
H     2.6959002   -1.3254847    1.4032096 
C    -3.1660863   -0.6217835    0.0000000 
C    -1.8623328    1.6956749    0.0000000 
H    -0.8696103    2.1315900    0.0000000 
H    -2.4014114    1.9872918    0.8923073 
H    -2.4014114    1.9872918   -0.8923073 
N    -4.2442631   -1.0282829    0.0000000 
