21
Energy =
N     0.9590227    1.6345189    0.6761505 
H    -0.1101905    1.2117244    2.4162272 
H     2.2109415    0.7772276    2.0787533 
H     2.9060472    0.8932402    0.4805779 
H    -0.8649227    2.3628200    1.3302506 
H     0.0295145    2.6806854   -0.8642538 
H     1.7506262    2.4381111   -1.0674749 
C     2.3099187    1.4279230    1.2134612 
C     0.0834640    2.0692369    1.7741509 
C     0.9830320    2.6921062   -0.3430822 
C     0.7220408    3.2253328    2.5583699 
C     2.9503692    2.7741457    1.5904782 
C     1.2723108    4.0591329    0.3001387 
C     1.8352357    3.8100598    1.6959158 
H     1.1310429    2.8727545    3.5035808 
H     3.4880438    2.6870713    2.5316649 
H     3.6715804    3.0833719    0.8356648 
H     0.3639013    4.6549578    0.3697456 
H     1.9785902    4.6200711   -0.3073357 
H    -0.0245920    3.9803329    2.7922746 
H     2.2101889    4.7336544    2.1277883 
