21
Energy =
H     0.2866864   -0.5666954    1.7869710 
H     0.3466749   -1.9115814    0.6656235 
C    -0.2491208   -1.0570891    0.9766704 
N    -0.3197999   -0.1146608   -0.1393601 
H    -0.1521127    1.6456234    0.9588499 
H    -0.7941217   -1.6609402   -1.4239900 
C    -0.8856407    1.1507618    0.3260321 
C    -1.1770920   -0.6711718   -1.1853904 
H    -1.0308380    1.7814526   -0.5476773 
H    -1.0663187   -0.0581434   -2.0776039 
C    -1.6609089   -1.4774432    1.4275907 
H    -1.7405269   -1.4512440    2.5120166 
H    -1.8794905   -2.4968523    1.1142252 
C    -2.2089900    0.9134364    1.0781747 
C    -2.6427400   -0.7328345   -0.7193074 
C    -2.6599226   -0.5157809    0.7908140 
H    -2.0755768    1.0492589    2.1501305 
H    -3.0856247   -1.6930003   -0.9739818 
H    -2.9652782    1.6258965    0.7566194 
H    -3.2383929    0.0355965   -1.2090960 
H    -3.6568685   -0.6862688    1.1880039 
