16
Energy =
O     1.1555257   -0.1748046    0.0000000 
Te   -1.7149296   -0.5447036    0.0000000 
C     1.7859111   -0.6366589   -1.1713418 
C     1.7859111   -0.6366589    1.1713418 
H     1.2325638   -0.2435778   -2.0167545 
H     2.8182651   -0.2866996   -1.2193364 
H     1.7798358   -1.7274129   -1.2157922 
H     1.2325638   -0.2435778    2.0167545 
H     1.7798358   -1.7274129    1.2157922 
H     2.8182651   -0.2866996    1.2193364 
C    -3.7698567   -0.4321953    0.0000000 
C    -1.5297640    1.5849694    0.0000000 
H    -0.4642496    1.7765560    0.0000000 
H    -1.9947481    1.9814945    0.8918428 
H    -1.9947481    1.9814945   -0.8918428 
N    -4.9203812   -0.3841123    0.0000000 
