26
Energy =
S     0.4279327   -1.5136288    0.0032505 
O     0.1250521    2.3413560   -0.0178994 
N    -0.3652224    0.0776555    0.0012200 
C     1.9624236   -0.7049330    0.0029320 
C     3.2236586   -1.2941650    0.0045778 
H     3.3133408   -2.3680740    0.0075619 
C     1.8439540    0.6808391   -0.0001587 
C     0.4696794    1.1683207   -0.0027343 
C     4.3302510   -0.4732008    0.0015786 
H     5.3103471   -0.9266374    0.0027736 
C    -1.7628789    0.1036635   -0.0045497 
C     4.2151226    0.9169509   -0.0033827 
H     5.1022270    1.5312560   -0.0062811 
C     2.9663446    1.4956962   -0.0046386 
H     2.8260482    2.5655595   -0.0096972 
C    -2.4688290   -1.0426211   -0.3728227 
H    -1.9371692   -1.9292646   -0.6778166 
C    -2.4799370    1.2389757    0.3754031 
H    -1.9459487    2.1274761    0.6539569 
C    -3.8617690    1.2134097    0.3778767 
H    -4.3972750    2.1027472    0.6748116 
C    -3.8495608   -1.0520921   -0.3573499 
H    -4.3692992   -1.9533950   -0.6442983 
C    -4.5599261    0.0750188    0.0151234 
H    -5.6388467    0.0657361    0.0232692 
I     1.5202804   -4.4466491   -0.0427063 
