18
Energy =
O     1.9741928    0.2841777    0.0000000 
Se   -1.3247572   -0.4129503    0.0000000 
C     2.2278150   -0.4581416   -1.1631396 
C     2.2278150   -0.4581416    1.1631396 
H     1.9938035    0.1727906   -2.0137132 
H     3.2774066   -0.7595724   -1.2175348 
H     1.6021264   -1.3530380   -1.2038317 
H     1.9938035    0.1727906    2.0137132 
H     1.6021264   -1.3530380    1.2038317 
H     3.2774066   -0.7595724    1.2175348 
C    -1.2096055    1.5244902    0.0000000 
C    -3.2649373   -0.5260556    0.0000000 
H    -0.1529766    1.7635669    0.0000000 
H    -1.6807742    1.9261577   -0.8899553 
H    -1.6807742    1.9261577    0.8899553 
H    -3.5259445   -1.5782401    0.0000000 
H    -3.6683632   -0.0556908    0.8896204 
H    -3.6683632   -0.0556908   -0.8896204 
