46
Energy =
Te   -0.4186906   -0.5507932    0.0740949 
O    -1.3919913   -3.8084327   -2.3290349 
N    -1.4102395   -2.2639891   -0.6293886 
C     0.7657638   -1.0238632   -1.5762011 
C     1.9080731   -0.3788912   -2.0227070 
H     2.2958940    0.4799011   -1.5050129 
C     0.2918006   -2.1401746   -2.2537721 
C    -0.9219979   -2.8350879   -1.7661435 
C     2.5612856   -0.8479912   -3.1470246 
H     3.4496842   -0.3419385   -3.4927096 
C    -2.5785817   -2.7000756    0.0135527 
C     2.0873899   -1.9601144   -3.8296249 
H     2.6055047   -2.3175401   -4.7051810 
C     0.9546999   -2.6048881   -3.3799437 
H     0.5530749   -3.4750299   -3.8756075 
C    -2.6627902   -2.6033143    1.3990734 
H    -1.8052527   -2.2585833    1.9579606 
C    -3.6734761   -3.1881353   -0.6953086 
H    -3.6132349   -3.2784067   -1.7645134 
C    -4.8181726   -3.5646891   -0.0201260 
H    -5.6579467   -3.9426831   -0.5825651 
C    -3.8162734   -2.9743786    2.0643900 
H    -3.8586777   -2.8941517    3.1395226 
C    -4.9014738   -3.4595144    1.3583017 
H    -5.8005373   -3.7557139    1.8749221 
N     0.9590227    1.6345189    0.6761505 
H    -0.1101905    1.2117244    2.4162272 
H     2.2109415    0.7772276    2.0787533 
H     2.9060472    0.8932402    0.4805779 
H    -0.8649227    2.3628200    1.3302506 
H     0.0295145    2.6806854   -0.8642538 
H     1.7506262    2.4381111   -1.0674749 
C     2.3099187    1.4279230    1.2134612 
C     0.0834640    2.0692369    1.7741509 
C     0.9830320    2.6921062   -0.3430822 
C     0.7220408    3.2253328    2.5583699 
C     2.9503692    2.7741457    1.5904782 
C     1.2723108    4.0591329    0.3001387 
C     1.8352357    3.8100598    1.6959158 
H     1.1310429    2.8727545    3.5035808 
H     3.4880438    2.6870713    2.5316649 
H     3.6715804    3.0833719    0.8356648 
H     0.3639013    4.6549578    0.3697456 
H     1.9785902    4.6200711   -0.3073357 
H    -0.0245920    3.9803329    2.7922746 
H     2.2101889    4.7336544    2.1277883 
