20
Energy =
N     1.3960788   -2.2502460   -0.2748459 
H    -0.4012822   -2.8895205   -1.0954690 
H     1.4387161   -2.0715803   -2.3388869 
H     2.9322098   -1.6260126   -1.5325676 
H    -0.2668676   -3.0895942    0.6405534 
H     1.7326639   -2.4913833    1.7569879 
H     3.1113970   -1.8975226    0.8478114 
C     2.1214843   -2.3512172   -1.5400154 
C     0.2739853   -3.1915081   -0.2977806 
C     2.2865984   -2.6063945    0.8283152 
C     0.8018565   -4.6290474   -0.5047726 
C     2.6582854   -3.7925728   -1.7174161 
C     2.7979522   -4.0552142    0.6363092 
N     2.2551691   -4.6196407   -0.5900640 
H     0.4088431   -5.0643882   -1.4206628 
H     2.2744916   -4.2451994   -2.6289143 
H     3.7444643   -3.8027852   -1.7769363 
H     2.4980510   -4.6908365    1.4664061 
H     3.8837193   -4.0836087    0.5755235 
H     0.5108348   -5.2772854    0.3185723 
