29
Energy =
C    -3.6107375    0.5383063   -0.2546319 
C    -2.3154846    0.1068269   -0.4996824 
C    -1.9795415   -1.2440861   -0.4182290 
C    -2.9518750   -2.1832620   -0.0848403 
C    -4.2338652   -1.7389568    0.1564100 
C    -4.5740910   -0.3875714    0.0750475 
H    -3.8262674    1.5932128   -0.3305786 
H    -2.6797714   -3.2254505   -0.0268160 
H    -4.9932275   -2.4619856    0.4153533 
H    -5.5883830   -0.0740692    0.2697029 
N    -0.1033861    0.1751477   -1.0042603 
C    -1.1958679    0.9711360   -0.8576732 
O    -1.2037506    2.1879854   -1.0085323 
C     1.1753356    0.7011201   -1.3744992 
H     0.9864382    1.7117938   -1.7357799 
H     1.5832470    0.1194566   -2.2017507 
C     2.1877425    0.7521628   -0.2576770 
C     3.5200710    0.9989106   -0.5602239 
C     1.8248937    0.5818465    1.0677665 
C     4.4703188    1.0842563    0.4397705 
H     3.8149263    1.1201958   -1.5932688 
C     2.7750366    0.6628454    2.0715181 
H     0.7958274    0.3704092    1.3101261 
C     4.0992820    0.9163863    1.7635902 
H     5.5022747    1.2743992    0.1860378 
H     2.4769983    0.5189878    3.0986953 
H     4.8391361    0.9746443    2.5471148 
S    -0.3034844   -1.5496105   -0.7656146 
Br   -0.4917949   -4.4950373   -0.4270749 
