26
Energy =
Te   -1.1661314   -0.0340596   -0.3293094 
C     0.9617882    3.5479552    0.7247811 
H     0.6365020    4.5750058    0.7720849 
N    -2.0837805    1.8567639   -0.3303339 
C     0.0342054    2.5860163    0.3444629 
C     2.2530388    3.1774723    1.0279314 
H     2.9759177    3.9210916    1.3235890 
C    -3.4060088    1.9278306   -0.6819201 
C     0.4009636    1.2394290    0.2662885 
C    -5.2771723    3.5156918   -0.9818023 
H    -5.8891874    2.6725182   -1.2605391 
N    -1.7836957    4.1545430    0.0560334 
O    -4.0115306    0.9088392   -0.9822907 
C    -4.9428440    5.8530215   -0.5806355 
H    -5.3377534    6.8571848   -0.5552130 
C     1.7045002    0.8757472    0.5732098 
H     2.0128558   -0.1535752    0.5201476 
C    -3.0975687    4.3368129   -0.2783105 
C    -1.3428360    2.9368188    0.0150377 
C    -5.7768069    4.7931042   -0.9486395 
H    -6.8071684    4.9820449   -1.2046236 
C     2.6195904    1.8404812    0.9503948 
H     3.6305894    1.5454728    1.1866939 
C    -3.6300795    5.6338123   -0.2516781 
H    -2.9772205    6.4430846    0.0337175 
C    -3.9446461    3.2765286   -0.6500064 
