19
Energy =
H     1.7383387   -5.9016340    1.6111382 
H     0.6011085   -5.8765813   -1.9141770 
C    -0.0723358   -5.9842584   -1.0633935 
C     0.6943281   -6.0014315    1.3126510 
C     0.5536588   -1.8364072   -1.1096959 
C     1.2492055   -1.8519915    1.0371991 
C     0.3445871   -3.1960608   -1.1169664 
C     1.0765603   -3.2123962    1.1486636 
C     0.6083556   -3.9391268    0.0435389 
N     1.0016111   -1.1498891   -0.0635549 
N     0.4198564   -5.2820534    0.0947093 
H     1.6076921   -1.2906065    1.8892339 
H     0.3432929   -1.2603994   -2.0003980 
H    -0.0212387   -3.6658235   -2.0131001 
H     1.3023023   -3.6953096    2.0832532 
H    -0.1548583   -7.0384144   -0.8304457 
H     0.4873846   -7.0528806    1.1579006 
H     0.0721691   -5.6504085    2.1367623 
H    -1.0569984   -5.6245909   -1.3641230 
