26
Energy =
S     0.4367058   -1.5673085    0.0239012 
O     0.1213111    2.3115639   -0.0517480 
N    -0.3630086    0.0459245   -0.0040110 
C     1.9617734   -0.7371305    0.0101143 
C     3.2285931   -1.3161985    0.0200364 
H     3.3165581   -2.3898669    0.0386625 
C     1.8390553    0.6496919   -0.0168485 
C     0.4645673    1.1360693   -0.0219366 
C     4.3306225   -0.4882181    0.0065269 
H     5.3141039   -0.9346643    0.0179960 
C    -1.7574511    0.0831467   -0.0063543 
C     4.2092671    0.9014275   -0.0172918 
H     5.0924397    1.5217673   -0.0238551 
C     2.9564809    1.4709981   -0.0296668 
H     2.8070530    2.5397189   -0.0482042 
C    -2.4728740   -1.0361150   -0.4339967 
H    -1.9424196   -1.9062166   -0.7841660 
C    -2.4669702    1.2022167    0.4337101 
H    -1.9257890    2.0714733    0.7568796 
C    -3.8487325    1.1885466    0.4347176 
H    -4.3779548    2.0649806    0.7782999 
C    -3.8537387   -1.0356204   -0.4192673 
H    -4.3815763   -1.9157215   -0.7538961 
C    -4.5557136    0.0764613    0.0106665 
H    -5.6347909    0.0758553    0.0169082 
Cl    1.5024882   -4.0127813    0.0628228 
