16
Energy =
S     1.5973219    0.4186989    0.0000000 
Te   -1.5232973   -0.3069660    0.0000000 
C     1.9077590   -0.6986248   -1.3710761 
C     1.9077590   -0.6986248    1.3710761 
H     1.7358939   -0.1420703   -2.2858159 
H     2.9349390   -1.0485446   -1.3527406 
H     1.2245136   -1.5429764   -1.3406916 
H     1.7358939   -0.1420703    2.2858159 
H     1.2245136   -1.5429764    1.3406916 
H     2.9349390   -1.0485446    1.3527406 
C    -3.5666814   -0.6365180    0.0000000 
C    -1.8286039    1.8090510    0.0000000 
H    -0.8397023    2.2499529    0.0000000 
H    -2.3728028    2.0864416    0.8919887 
H    -2.3728028    2.0864416   -0.8919887 
N    -4.6996427   -0.8426701    0.0000000 
