25
Energy =
Te   -0.5117042   -0.2974796    0.2675989 
O     0.2178376    3.5166801   -1.2182397 
N    -0.8486412    1.6764448   -0.3526289 
C     1.4330733    0.2687821   -0.2386761 
C     2.5982312   -0.4779300   -0.1498633 
H     2.5843763   -1.4897612    0.2156952 
C     1.4804400    1.5752143   -0.7095409 
C     0.2350198    2.3719586   -0.8005662 
C     3.7981636    0.0892089   -0.5376656 
H     4.7035730   -0.4942913   -0.4695144 
C    -2.1561921    2.1857944   -0.3744859 
C     3.8497585    1.3937693   -1.0098560 
H     4.7927483    1.8235849   -1.3081071 
C     2.6903012    2.1345220   -1.0937282 
H     2.6818801    3.1521168   -1.4521729 
C    -2.6040145    3.0266662   -1.3903961 
H    -1.9211835    3.3356411   -2.1604813 
C    -3.0458090    1.8058571    0.6255501 
H    -2.6975111    1.1810510    1.4348869 
C    -4.3563666    2.2451796    0.6097232 
H    -5.0282897    1.9401268    1.3967979 
C    -3.9132548    3.4669924   -1.3921851 
H    -4.2454042    4.1196672   -2.1847371 
C    -4.7981079    3.0808137   -0.3992648 
H    -5.8182415    3.4302682   -0.4110653 
