30
Energy =
C    -0.7092232    1.0288052   -1.5239035 
C    -0.8839857    2.5440542   -1.2847041 
H     0.1330555    0.8349231   -2.1860400 
H    -1.5929664    0.6007617   -1.9924540 
H    -0.2684323    3.1200060   -1.9731903 
H    -1.9171201    2.8472533   -1.4484217 
C     0.8262264    0.7340370    0.2692603 
H     0.9417136    0.2500216    1.2367487 
H     1.6141207    0.3464147   -0.3743056 
C     0.9123103    2.2691904    0.3995416 
H     1.2729453    2.5549682    1.3858377 
H     1.6081247    2.6845597   -0.3281912 
C    -1.4645823    2.1282224    1.0885420 
H    -1.1362876    2.2386443    2.1210721 
H    -2.4508086    2.5829567    1.0161567 
C    -1.5123561    0.6400773    0.6806701 
H    -1.3956281   -0.0097569    1.5454485 
H    -2.4651859    0.3915758    0.2175316 
N    -0.4608353    0.3192510   -0.2758823 
C    -0.4836801    2.8362490    0.1583807 
H    -0.4937646    3.9076093    0.3432232 
S     0.0385700   -2.7428340    0.8924271 
C     0.8086505   -2.7761581   -0.6259093 
C     1.5565149   -3.9010621   -0.7811349 
C     1.5045154   -4.7474650    0.3519559 
C     0.7157220   -4.2421547    1.3380781 
H     2.1224070   -4.1183053   -1.6713049 
H     2.0273730   -5.6856341    0.4307541 
H     0.5001583   -4.6732637    2.2980839 
H     0.6524485   -1.9629471   -1.3082703 
