13
Energy =
Te   -2.1030333   -0.3735555    0.0000000 
Cl   -1.9120126    1.9562470    0.0000000 
Cl   -4.4676157   -0.4070382    0.0000000 
C     0.7876548   -0.1746339   -0.6025580 
C     0.7876548   -0.1746339    0.6025580 
C     0.8503022   -0.1177932   -2.0508576 
H     1.8790677    0.0089607   -2.3798021 
H     0.4576681   -1.0259847   -2.4996301 
H     0.2666380    0.7216243   -2.4217261 
C     0.8503022   -0.1177932    2.0508576 
H     0.4576681   -1.0259847    2.4996301 
H     1.8790677    0.0089607    2.3798021 
H     0.2666380    0.7216243    2.4217261 
