25
Energy =
Se   -0.3081983   -0.5482744   -0.2970318 
O    -1.1390130   -3.2669047   -3.0548799 
N    -1.2786439   -1.8775961   -1.2274457 
C     1.0300441   -0.8348191   -1.5902042 
C     2.2623342   -0.2088859   -1.6811511 
H     2.5552433    0.5380698   -0.9655083 
C     0.6589712   -1.7992988   -2.5140409 
C    -0.6659796   -2.4099374   -2.3343292 
C     3.1100577   -0.5643337   -2.7121371 
H     4.0717910   -0.0816711   -2.7930481 
C    -2.5646087   -2.2176251   -0.7765115 
C     2.7449992   -1.5317913   -3.6427795 
H     3.4234549   -1.7943611   -4.4384316 
C     1.5178049   -2.1513565   -3.5433544 
H     1.1964007   -2.9078666   -4.2422181 
C    -2.8466475   -2.1626959    0.5841579 
H    -2.0625954   -1.9097137    1.2811077 
C    -3.5716022   -2.5789295   -1.6664601 
H    -3.3564720   -2.6328987   -2.7177232 
C    -4.8322972   -2.8791012   -1.1876935 
H    -5.6042954   -3.1602508   -1.8869370 
C    -4.1148438   -2.4547099    1.0491222 
H    -4.3149796   -2.4081562    2.1081787 
C    -5.1151430   -2.8172496    0.1660938 
H    -6.1035832   -3.0510805    0.5281034 
