20
Energy =
C    -0.4694903    0.7009464   -1.2141382 
C    -0.7935893    2.2157520   -1.2253467 
H     0.3852154    0.4766927   -1.8507367 
H    -1.3106848    0.1074511   -1.5672677 
H    -0.1318479    2.7568342   -1.8985669 
H    -1.8156088    2.3985838   -1.5507034 
C     1.0193780    1.0158547    0.6119549 
H     1.2472708    0.6783791    1.6210792 
H     1.8650334    0.7505448   -0.0197050 
C     0.7277138    2.5355543    0.5677180 
H     0.8422192    2.9896131    1.5497719 
H     1.4039182    3.0490664   -0.1127475 
C    -1.5596804    2.0928165    1.0164605 
H    -1.4332096    2.5182323    2.0098272 
H    -2.5754645    2.3100324    0.6926737 
C    -1.2816750    0.5705710    1.0154288 
H    -1.0445505    0.2044105    2.0127047 
H    -2.1386439    0.0048526    0.6555562 
N    -0.1488386    0.2777786    0.1434918 
N    -0.6367144    2.7664700    0.1130329 
