27
Energy =
Te    1.6821779   -2.6575045   -0.0002850 
C     2.1932477    1.6363720   -0.0001262 
H     1.4776119    2.4431397   -0.0002582 
N     0.0064836   -1.2644633   -0.0004525 
C     1.7060682    0.3334920   -0.0001397 
C     3.5505914    1.8680441    0.0000691 
H     3.9309765    2.8781434    0.0000873 
C    -1.2629209   -1.7684717   -0.0006149 
C     2.5881919   -0.7531563    0.0000084 
C    -3.6439032   -1.1107102   -0.0002864 
H    -3.8759888   -2.1646071   -0.0004852 
N    -0.6171075    1.0094819   -0.0001672 
O    -1.4648439   -2.9760199   -0.0008190 
C    -4.2557313    1.2023034    0.0004763 
H    -5.0234344    1.9617666    0.0008681 
C     3.9555989   -0.5075551    0.0002498 
H     4.6476270   -1.3338913    0.0004018 
C    -1.9181070    0.6066911   -0.0001089 
C     0.2740672    0.0543450   -0.0002949 
C    -4.6216823   -0.1481977    0.0001623 
H    -5.6637758   -0.4274826    0.0003009 
C     4.4276723    0.7896524    0.0002844 
H     5.4942639    0.9613254    0.0004766 
C    -2.9367669    1.5750302    0.0003392 
H    -2.6432753    2.6130494    0.0006132 
C    -2.2992341   -0.7479280   -0.0004261 
I     4.2921929   -4.0728490    0.0001267 
