30
Energy =
C     0.2976249    2.6210560    0.3194133 
Se   -0.0119735    2.0894592   -1.5210544 
C     0.2518986    3.8938707   -1.9692892 
H     0.1833151    4.1865562   -3.0044776 
C     0.5124560    4.7295430   -0.9599536 
H     0.6813724    5.7877653   -1.0742930 
C     0.5557226    4.1202758    0.3618131 
O     0.7669563    4.6963078    1.4034941 
H     1.1536246    2.0826211    0.7105611 
H    -0.5703014    2.3737208    0.9197219 
N    -0.1759330   -0.5864173   -0.0061713 
H    -1.8788171   -0.4376232    1.1666686 
H    -1.8712533   -0.8809024   -1.1618590 
H    -0.3473101   -1.0863567   -2.0094021 
H    -0.3599530   -0.2664463    2.0359757 
H     1.6955610   -0.5391083    0.8870970 
H     1.7018325   -0.8598367   -0.8411472 
C    -0.8682956   -1.2947541   -1.0763852 
C    -0.8670389   -0.8296956    1.2539635 
C     1.1902285   -1.0865138    0.0926050 
C    -0.8723451   -2.3484957    1.5605956 
C    -0.8984280   -2.8107541   -0.7667273 
C     1.1697753   -2.6081694    0.3801676 
N    -0.2061175   -3.0735550    0.4876057 
H    -1.8872470   -2.7301257    1.6513231 
H    -1.9190359   -3.1769502   -0.6745623 
H    -0.4126389   -3.3858643   -1.5524628 
H     1.6828296   -2.8439764    1.3103569 
H     1.6573223   -3.1680096   -0.4153657 
H    -0.3538315   -2.5676209    2.4917887 
