25
Energy =
S    -0.1849502   -0.8167724   -0.3592477 
O    -1.3012290   -3.0036419   -3.2691815 
N    -1.2354764   -1.8097007   -1.2958307 
C     1.0696429   -1.0163446   -1.5341180 
C     2.3555830   -0.4949756   -1.4910862 
H     2.6770123    0.1018149   -0.6562483 
C     0.6612092   -1.8055460   -2.5993911 
C    -0.7113043   -2.2926919   -2.4833772 
C     3.2054420   -0.7756493   -2.5406098 
H     4.2084542   -0.3782454   -2.5227215 
C    -2.5332385   -2.0561045   -0.8089894 
C     2.7995773   -1.5635213   -3.6167198 
H     3.4881128   -1.7663958   -4.4209674 
C     1.5250860   -2.0844915   -3.6469058 
H     1.1760285   -2.7046437   -4.4575881 
C    -2.7591000   -2.0601764    0.5626902 
H    -1.9344355   -1.9170638    1.2428891 
C    -3.5953737   -2.2693682   -1.6809177 
H    -3.4213358   -2.2743621   -2.7408521 
C    -4.8608376   -2.4877286   -1.1709885 
H    -5.6779701   -2.6552865   -1.8550110 
C    -4.0326459   -2.2681139    1.0572310 
H    -4.1919416   -2.2694047    2.1240762 
C    -5.0904156   -2.4861135    0.1939441 
H    -6.0830161   -2.6543839    0.5800213 
