47
Energy =
S    -0.2898601    0.1796814    0.0240934 
C     1.3496874    3.7584030    0.3131792 
H     0.9403202    4.7487007    0.4332301 
N    -1.4452415    1.4417074    0.2033148 
C     0.4827437    2.6773708    0.2421515 
C     2.7047148    3.5324215    0.2285806 
H     3.3955514    4.3582613    0.2806943 
C    -2.7923098    1.1190490    0.2313779 
C     0.9693794    1.3791974    0.0879054 
C    -5.0195034    2.1432228    0.4369615 
H    -5.4264247    1.1480132    0.3542264 
N    -1.6924688    3.7685747    0.4513884 
O    -3.1477086   -0.0376641    0.1300362 
C    -5.2492959    4.5132692    0.6897238 
H    -5.8847993    5.3774941    0.8066461 
C     2.3359903    1.1523467    0.0025917 
H     2.7161128    0.1537676   -0.1171166 
C    -3.0459480    3.5663708    0.4917060 
C    -0.9569394    2.7191849    0.3113820 
C    -5.8243193    3.2433689    0.5862351 
H    -6.8960605    3.1321791    0.6237072 
C     3.1880687    2.2344865    0.0744116 
H     4.2521797    2.0688519    0.0090350 
C    -3.8889034    4.6754498    0.6441506 
H    -3.4333238    5.6492592    0.7233927 
C    -3.6334311    2.2914049    0.3883762 
N     1.3835534   -2.0739521   -0.2698985 
H    -0.4450324   -2.5469058   -1.1155123 
H     1.4789211   -1.8910360   -2.3272883 
H     2.9904598   -1.6026508   -1.4916610 
H    -0.3762507   -2.7020022    0.6215775 
H     1.6574143   -2.3044479    1.7657738 
H     3.0890134   -1.8191291    0.8820125 
C     2.1142416   -2.2479997   -1.5201186 
C     0.1764950   -2.8962936   -0.2944692 
C     2.2224911   -2.4774183    0.8528892 
C     0.5176212   -4.3931576   -0.4416551 
C     2.5229632   -3.7215369   -1.7348035 
C     2.6569823   -3.9541790    0.7309682 
C     2.0333143   -4.5280917   -0.5367853 
H     0.0499956   -4.8109001   -1.3309867 
H     2.0858635   -4.1145669   -2.6506121 
H     3.6031931   -3.8143041   -1.8303394 
H     2.3311280   -4.5258064    1.5976740 
H     3.7412287   -4.0367548    0.6823984 
H     0.1468901   -4.9602411    0.4099403 
H     2.3113028   -5.5729984   -0.6504849 
