28
Energy =
C    -3.5153133    0.4960453   -0.2300078 
C    -2.2672819   -0.0539247   -0.4845756 
C    -2.0849604   -1.4340262   -0.4271890 
C    -3.1566140   -2.2585420   -0.1147147 
C    -4.3948923   -1.6982028    0.1361768 
C    -4.5815040   -0.3217194    0.0807287 
H    -3.6094883    1.5700343   -0.2853190 
H    -3.0138068   -3.3262798   -0.0717034 
H    -5.2262855   -2.3440752    0.3786071 
H    -5.5542284    0.1025243    0.2798210 
N    -0.0021721    0.0971024   -1.0166087 
C    -1.1168030    0.8169446   -0.8185376 
O    -1.2058587    2.0440997   -0.8976521 
C     1.2128191    0.7693223   -1.3657632 
H     0.9517608    1.7875462   -1.6596640 
H     1.6693931    0.2835079   -2.2307502 
C     2.2352594    0.8327759   -0.2581168 
C     3.5629649    1.1080714   -0.5580395 
C     1.8797476    0.6469176    1.0683909 
C     4.5133261    1.2062653    0.4414559 
H     3.8534553    1.2423422   -1.5909429 
C     2.8283423    0.7421498    2.0720342 
H     0.8537152    0.4144784    1.3049832 
C     4.1478297    1.0236308    1.7649059 
H     5.5413358    1.4179121    0.1876312 
H     2.5341724    0.5887411    3.0992822 
H     4.8873881    1.0921598    2.5481335 
Te   -0.1269831   -2.0567963   -0.8322430 
