25
Energy =
Te    0.3852425   -2.0480065    0.0625505 
O     0.1566366    2.2000846   -0.1989025 
N    -0.4485485   -0.0229581   -0.1645662 
C     2.0969301   -0.8432067    0.0340853 
C     3.4103153   -1.2847094    0.1130289 
H     3.6205243   -2.3382688    0.2017738 
C     1.8308532    0.5195138   -0.0766194 
C     0.4292276    1.0028358   -0.1476661 
C     4.4435673   -0.3683865    0.0817140 
H     5.4626762   -0.7213389    0.1462960 
C    -1.8279050    0.1196867   -0.1179418 
C     4.1842760    0.9918592   -0.0301667 
H     4.9995887    1.6990207   -0.0544828 
C     2.8786721    1.4296125   -0.1080781 
H     2.6285594    2.4758311   -0.1931649 
C    -2.6211642   -0.9048429   -0.6415609 
H    -2.1417603   -1.7310031   -1.1440457 
C    -2.4694817    1.2006417    0.4920388 
H    -1.8731849    2.0046794    0.8832586 
C    -3.8475557    1.2283648    0.5860833 
H    -4.3215371    2.0696692    1.0698418 
C    -3.9972117   -0.8696525   -0.5358296 
H    -4.5790679   -1.6835032   -0.9424130 
C    -4.6246509    0.1975307    0.0822003 
H    -5.6998209    0.2262501    0.1687011 
