18
Energy =
S     2.3287756    0.6229220    0.0000000 
Se   -1.2685638   -0.2095917    0.0000000 
C     2.3121164   -0.5421242   -1.3667244 
C     2.3121164   -0.5421242    1.3667244 
H     2.3113660    0.0364010   -2.2845209 
H     3.1962285   -1.1728864   -1.3478616 
H     1.4145476   -1.1531300   -1.3381293 
H     2.3113660    0.0364010    2.2845209 
H     1.4145476   -1.1531300    1.3381293 
H     3.1962285   -1.1728864    1.3478616 
C    -1.4408478    1.7230893    0.0000000 
C    -3.1718887   -0.6060583    0.0000000 
H    -0.4312707    2.1160674    0.0000000 
H    -1.9650717    2.0512659   -0.8903138 
H    -1.9650717    2.0512659    0.8903138 
H    -3.2749499   -1.6852013    0.0000000 
H    -3.6398141   -0.2001400    0.8897032 
H    -3.6398141   -0.2001400   -0.8897032 
