19
Energy =
N     0.8973215    0.1254070    0.0000000 
C     0.2017565    0.0434734   -1.1300956 
C     0.2017565    0.0434734    1.1300956 
C    -1.1637098   -0.1045461   -1.1910301 
H     0.7731155    0.1095423   -2.0456756 
C    -1.1637098   -0.1045461    1.1910301 
H     0.7731155    0.1095423    2.0456756 
C    -1.9030249   -0.1699338    0.0000000 
H    -1.6428601   -0.1571080   -2.1528468 
H    -1.6428601   -0.1571080    2.1528468 
N    -3.2546739   -0.2822075    0.0000000 
C    -3.9757711   -0.2795314   -1.2482358 
H    -5.0369650   -0.3473325   -1.0446429 
H    -3.7946604    0.6337606   -1.8167515 
H    -3.6962564   -1.1270630   -1.8737869 
C    -3.9757711   -0.2795314    1.2482358 
H    -5.0369650   -0.3473325    1.0446429 
H    -3.6962564   -1.1270630    1.8737869 
H    -3.7946604    0.6337606    1.8167515 
