21
Energy =
H     1.9599642   -3.3586810    0.7227530 
H     1.2167773   -1.4897543   -0.4640041 
C     1.0077713   -3.5490418    0.2302991 
C     0.4504730   -2.2601289   -0.4005344 
H     1.1865000   -4.3027151   -0.5334767 
H     0.0870960   -2.4380876   -1.4103505 
H     0.8343284   -3.0775662    2.9890852 
H     0.6516912   -1.0613792    1.8145635 
C    -0.0122141   -4.0461330    1.2492808 
C    -0.0762787   -3.0404578    2.3951713 
H     0.2658850   -5.0290744    1.6201294 
C    -0.2685548   -1.6401329    1.7829929 
N    -0.6700855   -1.7344648    0.3796148 
C    -1.3782412   -4.0980021    0.5717802 
H    -0.9024624   -3.2906552    3.0591042 
C    -1.8032753   -2.6504089    0.2576144 
H    -1.3145113   -4.6897961   -0.3399702 
H    -1.0220347   -1.0711772    2.3228478 
H    -2.2127870   -2.5617161   -0.7455913 
H    -2.1096965   -4.5802389    1.2166977 
H    -2.5728511   -2.3209667    0.9525247 
