19
Energy =
H    -2.8485040    2.4614930   -1.8884429 
H    -2.8485040    2.4614930    1.8884429 
C    -3.5578127    1.9379896    1.2485098 
C    -3.5578127    1.9379896   -1.2485098 
C    -0.1972522   -0.5616167    1.1352213 
C    -0.1972522   -0.5616167   -1.1352213 
C    -1.2883581    0.2691831    1.1926391 
C    -1.2883581    0.2691831   -1.1926391 
C    -1.8764997    0.7221851    0.0000000 
N     0.3554902   -0.9813896    0.0000000 
N    -2.9492643    1.5470090    0.0000000 
H     0.2679574   -0.9122456   -2.0451000 
H     0.2679574   -0.9122456    2.0451000 
H    -1.6736382    0.5587010    2.1539876 
H    -1.6736382    0.5587010   -2.1539876 
H    -4.3840911    2.6077722    1.0458410 
H    -4.3840911    2.6077722   -1.0458410 
H    -3.9416353    1.0769448   -1.7978415 
H    -3.9416353    1.0769448    1.7978415 
