45
Energy =
Te   -1.1661314   -0.0340596   -0.3293094 
C     0.9617882    3.5479552    0.7247811 
H     0.6365020    4.5750058    0.7720849 
N    -2.0837805    1.8567639   -0.3303339 
C     0.0342054    2.5860163    0.3444629 
C     2.2530388    3.1774723    1.0279314 
H     2.9759177    3.9210916    1.3235890 
C    -3.4060088    1.9278306   -0.6819201 
C     0.4009636    1.2394290    0.2662885 
C    -5.2771723    3.5156918   -0.9818023 
H    -5.8891874    2.6725182   -1.2605391 
N    -1.7836957    4.1545430    0.0560334 
O    -4.0115306    0.9088392   -0.9822907 
C    -4.9428440    5.8530215   -0.5806355 
H    -5.3377534    6.8571848   -0.5552130 
C     1.7045002    0.8757472    0.5732098 
H     2.0128558   -0.1535752    0.5201476 
C    -3.0975687    4.3368129   -0.2783105 
C    -1.3428360    2.9368188    0.0150377 
C    -5.7768069    4.7931042   -0.9486395 
H    -6.8071684    4.9820449   -1.2046236 
C     2.6195904    1.8404812    0.9503948 
H     3.6305894    1.5454728    1.1866939 
C    -3.6300795    5.6338123   -0.2516781 
H    -2.9772205    6.4430846    0.0337175 
C    -3.9446461    3.2765286   -0.6500064 
H     3.1136711   -5.9599910   -1.8441633 
H     2.1233954   -6.4270172    1.6511883 
C     3.0863853   -6.0005733    1.3701140 
C     2.1826232   -4.1825914    0.0511175 
C     3.7613275   -5.6774432   -1.0140850 
C     0.6071242   -2.6447253    1.0051980 
C     1.2183009   -2.3531965   -1.1658024 
C     1.4135618   -3.7458064    1.1435440 
C     2.0551896   -3.4396814   -1.1352961 
N     0.5014330   -1.9437965   -0.1215171 
N     2.9982716   -5.2569034    0.1364264 
H     1.1115380   -1.7715612   -2.0697935 
H     0.0119598   -2.2959354    1.8364759 
H     1.4415530   -4.2562487    2.0896623 
H     2.5994245   -3.7039528   -2.0243652 
H     3.7920514   -6.8116008    1.2446339 
H     4.3618759   -6.5368724   -0.7453815 
H     4.4311886   -4.8893878   -1.3570605 
H     3.4336039   -5.3723515    2.1900342 
