26
Energy =
Te    0.4309147   -2.1083223    0.1253906 
O     0.1294200    2.1419447   -0.1800561 
N    -0.4501483   -0.0876300   -0.0756986 
C     2.1129920   -0.8684951    0.0598755 
C     3.4344757   -1.2898529    0.1137753 
H     3.6567554   -2.3410633    0.1995318 
C     1.8239741    0.4890765   -0.0487892 
C     0.4166105    0.9490991   -0.1020423 
C     4.4507436   -0.3551118    0.0592456 
H     5.4771668   -0.6891274    0.1030831 
C    -1.8298371    0.0748934   -0.0595025 
C     4.1677260    1.0011384   -0.0503786 
H     4.9702682    1.7220864   -0.0929202 
C     2.8544523    1.4175179   -0.1038347 
H     2.5834840    2.4587702   -0.1886158 
C    -2.6332606   -0.9324115   -0.5984346 
H    -2.1591507   -1.7800994   -1.0691254 
C    -2.4633731    1.1814232    0.5150393 
H    -1.8609732    1.9727763    0.9215144 
C    -3.8421409    1.2583940    0.5457927 
H    -4.3076531    2.1227850    0.9965497 
C    -4.0114025   -0.8471216   -0.5578733 
H    -4.6030110   -1.6435601   -0.9842084 
C    -4.6302947    0.2504440    0.0140701 
H    -5.7067853    0.3208176    0.0435350 
Br    1.9890472   -4.4183713    0.4140763 
