25
Energy =
S     0.4325661   -1.5386685    0.0098479 
O     0.1211985    2.3239460   -0.0247810 
N    -0.3638713    0.0585812    0.0019099 
C     1.9626946   -0.7206911    0.0047852 
C     3.2260320   -1.3062055    0.0075690 
H     3.3115219   -2.3806887    0.0122556 
C     1.8414991    0.6654399   -0.0020658 
C     0.4673380    1.1505139   -0.0055012 
C     4.3298495   -0.4806904    0.0029681 
H     5.3123270   -0.9291065    0.0052321 
C    -1.7604942    0.0916971   -0.0043866 
C     4.2112627    0.9096426   -0.0052829 
H     5.0963551    1.5271592   -0.0093054 
C     2.9608843    1.4843550   -0.0085380 
H     2.8161473    2.5538176   -0.0163310 
C    -2.4721239   -1.0413701   -0.4005585 
H    -1.9422456   -1.9218334   -0.7253302 
C    -2.4726842    1.2217252    0.4010499 
H    -1.9349208    2.1010336    0.7009553 
C    -3.8545323    1.2043068    0.4000951 
H    -4.3858403    2.0894808    0.7167283 
C    -3.8530313   -1.0434515   -0.3882490 
H    -4.3774826   -1.9344510   -0.6980075 
C    -4.5581699    0.0785639    0.0090129 
H    -5.6371821    0.0752244    0.0146018 
