26
Energy =
Te   -0.4896838   -0.4044302   -0.0003696 
C     1.2195633    3.5217841    0.2810086 
H     0.7571409    4.4895118    0.3936463 
N    -1.6662603    1.2997148    0.2194806 
C     0.3949178    2.4056600    0.2181401 
C     2.5864657    3.3727252    0.1997506 
H     3.2297975    4.2366287    0.2479569 
C    -3.0243504    1.1250982    0.2709326 
C     0.9440244    1.1291104    0.0729003 
C    -5.1533948    2.3597669    0.4939197 
H    -5.6607507    1.4101832    0.4314513 
N    -1.6788884    3.6357977    0.4354434 
O    -3.4912885   -0.0019419    0.1888298 
C    -5.1374221    4.7447245    0.7139719 
H    -5.6800993    5.6706289    0.8274051 
C     2.3207000    0.9890754   -0.0069215 
H     2.7648928    0.0159503   -0.1169043 
C    -3.0449114    3.5754043    0.4993401 
C    -1.0566345    2.5094954    0.3002143 
C    -5.8400645    3.5386626    0.6380708 
H    -6.9169318    3.5383580    0.6928597 
C     3.1338354    2.1045016    0.0559365 
H     4.2044372    1.9845715   -0.0072293 
C    -3.7682149    4.7671037    0.6463755 
H    -3.2154905    5.6909810    0.7038815 
C    -3.7611774    2.3660844    0.4238068 
