12
Energy =
O     0.2439113    0.0050244    0.0000000 
C    -0.5600700    0.0004849   -1.0910703 
C    -1.8531789   -0.0108072   -0.7131693 
C    -1.8531789   -0.0108072    0.7131693 
C    -0.5600700    0.0004849    1.0910703 
S     2.9001235    0.4815396    0.0000000 
F     4.5235202    0.3893962    0.0000000 
H    -0.0620455    0.0096129   -2.0399521 
H    -2.7051324   -0.0171987   -1.3652607 
H    -2.7051324   -0.0171987    1.3652607 
H    -0.0620455    0.0096129    2.0399521 
H     2.6932986   -0.8401439    0.0000000 
