29
Energy =
N     3.4301859    0.4245077   -2.1251988 
S     1.9134672    0.1784963   -1.4199856 
C     2.5579025    0.7166737    0.0702133 
H     1.9022367    0.7417952    0.9200610 
C     3.8516517    1.0596777    0.0157738 
H     4.4322833    1.4200593    0.8452568 
C     4.4366593    0.8999912   -1.3087993 
H     3.5973001    0.2344067   -3.0958683 
O     5.5700050    1.1218853   -1.6839977 
H     0.2549069   -0.7431174    1.8454402 
H     0.0877627   -2.0161123    0.6473468 
C    -0.3791584   -1.1167089    1.0426265 
N    -0.4082803   -0.1170638   -0.0196994 
H    -0.3565407    1.4857662    1.2987713 
H    -0.7578661   -1.5135725   -1.5097321 
C    -0.9923956    1.1167352    0.4952593 
C    -1.2271793   -0.6118373   -1.1213504 
H    -0.9761822    1.8565565   -0.3019728 
H    -1.2100006    0.1340012   -1.9136026 
C    -1.8205439   -1.3867711    1.5406309 
H    -1.9232138   -1.1554792    2.5986512 
H    -2.0957073   -2.4302258    1.4035554 
C    -2.4317074    0.8399782    0.9955685 
C    -2.6651394   -0.8831501   -0.6184953 
N    -2.7644988   -0.5634886    0.7988257 
H    -2.5336027    1.0702756    2.0538769 
H    -2.9406804   -1.9268808   -0.7529345 
H    -3.1590440    1.4426234    0.4560304 
H    -3.3926203   -0.2790217   -1.1562514 
