20
Energy =
N     1.0178497    1.4534254    1.0509833 
H     2.0741660    0.1919132    2.3118326 
H    -0.2386935    0.6439552    2.4893453 
H     3.0484495    1.0008618    1.0977964 
H    -0.9923645    1.8102930    1.4159723 
C     2.2317474    1.1396756    1.8023952 
C    -0.0930665    1.6007761    1.9915399 
H     2.0155725    2.5932435   -0.3733017 
H     0.2948911    2.9077827   -0.2373450 
C     1.1992820    2.7149867    0.3349276 
C     2.5383477    2.2861327    2.7969977 
C     0.2196968    2.7299872    2.9997158 
C     1.4968551    3.8486828    1.3463636 
H     2.5625282    1.9218793    3.8216384 
N     1.5170200    3.3183511    2.7017042 
H     0.2418395    2.3525696    4.0196161 
H     3.5038524    2.7409578    2.5867620 
H    -0.5312924    3.5155374    2.9558462 
H     2.4605509    4.3115962    1.1457385 
H     0.7405698    4.6288309    1.2965933 
