28
Energy =
N     4.3681217   -3.1922279    0.0000000 
Te    2.3991680   -2.5754370    0.0000000 
C     3.4079193   -0.7765714    0.0000000 
H     2.8520783    0.1453272    0.0000000 
C     4.7334366   -0.8880394    0.0000000 
H     5.3996064   -0.0396225    0.0000000 
C     5.3336638   -2.2353611    0.0000000 
H     4.6878976   -4.1450341    0.0000000 
O     6.5348551   -2.4566042    0.0000000 
H    -2.8485040    2.4614930   -1.8884429 
H    -2.8485040    2.4614930    1.8884429 
C    -3.5578127    1.9379896    1.2485098 
C    -3.5578127    1.9379896   -1.2485098 
C    -0.1972522   -0.5616167    1.1352213 
C    -0.1972522   -0.5616167   -1.1352213 
C    -1.2883581    0.2691831    1.1926391 
C    -1.2883581    0.2691831   -1.1926391 
C    -1.8764997    0.7221851    0.0000000 
N     0.3554902   -0.9813896    0.0000000 
N    -2.9492643    1.5470090    0.0000000 
H     0.2679574   -0.9122456   -2.0451000 
H     0.2679574   -0.9122456    2.0451000 
H    -1.6736382    0.5587010    2.1539876 
H    -1.6736382    0.5587010   -2.1539876 
H    -4.3840911    2.6077722    1.0458410 
H    -4.3840911    2.6077722   -1.0458410 
H    -3.9416353    1.0769448   -1.7978415 
H    -3.9416353    1.0769448    1.7978415 
