20
Energy =
N    -3.4438888    1.5109505    0.0000000 
Te   -2.0129124    0.0425129    0.0000000 
C    -0.8534354    1.7480563    0.0000000 
H     0.2196711    1.6673319    0.0000000 
C    -1.5522428    2.8797365    0.0000000 
H    -1.0995099    3.8585693    0.0000000 
C    -3.0246753    2.8063493    0.0000000 
H    -4.4376512    1.3625202    0.0000000 
O    -3.7671113    3.7734851    0.0000000 
C     2.2448997   -1.9986221    1.1906300 
C     1.0076326   -1.3859205    1.1428066 
C     2.8740873   -2.3107988    0.0000000 
C     1.0076326   -1.3859205   -1.1428066 
C     2.2448997   -1.9986221   -1.1906300 
N     0.4022784   -1.0855729    0.0000000 
H     0.4760626   -1.1225821   -2.0454502 
H     2.6993149   -2.2236135    2.1412756 
H     0.4760626   -1.1225821    2.0454502 
H     3.8400196   -2.7907409    0.0000000 
H     2.6993149   -2.2236135   -2.1412756 
