20
Energy =
C    -1.8032862   -0.9267508   -1.7869208 
C    -0.2182984   -1.4831234   -0.2591054 
C    -0.2690415   -2.8194676   -0.6141184 
C    -1.1424132   -3.2030788   -1.6139941 
C    -1.9271604   -2.2367395   -2.2145822 
H    -2.4015571   -0.1458779   -2.2351266 
H     0.4571310   -1.1441990    0.5147982 
H     0.3638114   -3.5368353   -0.1171156 
H    -1.2099337   -4.2354138   -1.9200652 
H    -2.6222494   -2.4879188   -2.9994249 
N    -0.9678614   -0.5480800   -0.8286553 
Se    1.2167678    1.9522090   -0.2282491 
C     0.1834443    1.7551277    1.2941702 
C     0.7262730    2.4004078    2.3527672 
C     1.9467581    3.0759305    2.0789105 
C     2.3749436    2.9699738    0.7988088 
H     0.2649037    2.4019708    3.3274167 
H     2.4893749    3.6284968    2.8291748 
H     3.2647816    3.3963160    0.3735372 
H    -0.7263882    1.1870524    1.2477740 
