28
Energy =
C    -3.1586481    3.5802477    0.3511437 
C    -2.0968650    2.8666633   -0.1813221 
C    -1.9565149    1.5122416    0.0874849 
C    -2.8750840    0.8542567    0.8889760 
C    -3.9297149    1.5745535    1.4148440 
C    -4.0759840    2.9329450    1.1514268 
H    -3.2384012    4.6310251    0.1193453 
H    -2.7717432   -0.1964928    1.0933037 
H    -4.6523137    1.0708485    2.0383437 
H    -4.9080398    3.4747624    1.5716153 
N    -0.1643645    2.5119345   -1.4048531 
C    -1.0734387    3.4629297   -1.0540949 
O    -1.0323437    4.6261497   -1.4152431 
C     0.9248287    2.7884010   -2.3068685 
H     0.9304374    3.8699106   -2.4349489 
H     0.7312051    2.3443939   -3.2842693 
C     2.2484538    2.2989504   -1.7883215 
C     3.1236667    1.6198958   -2.6207533 
C     2.6164847    2.5263092   -0.4685969 
C     4.3509366    1.1827233   -2.1507972 
H     2.8396184    1.4287368   -3.6454289 
C     3.8388197    2.0896120    0.0041920 
H     1.9307843    3.0405602    0.1878492 
C     4.7111351    1.4165412   -0.8364331 
H     5.0218494    0.6551910   -2.8107790 
H     4.1130553    2.2736177    1.0313398 
H     5.6649689    1.0745411   -0.4664287 
Se   -0.4302825    0.7791293   -0.7412576 
