21
Energy =
N     1.2328395   -2.2719723   -0.2724187 
H    -0.2678720   -3.1841918   -1.3693992 
H     1.4777020   -1.8275156   -2.2918188 
H     2.8974261   -1.5735736   -1.2992576 
H    -0.5126086   -3.2214537    0.3656829 
H     1.3900860   -2.7486992    1.7321005 
H     2.6515705   -1.6888068    1.1499623 
C     2.0663740   -2.2486521   -1.4810968 
C     0.2338668   -3.3412399   -0.4173234 
C     2.0655853   -2.5680791    0.8996467 
C     0.8988857   -4.7243671   -0.3514132 
C     2.5785058   -3.6603427   -1.8152265 
C     2.9647259   -3.7859279    0.6277553 
C     2.3944380   -4.5301672   -0.5757318 
H     0.4754999   -5.3828459   -1.1058938 
H     2.0246701   -4.0861611   -2.6500386 
H     3.6246776   -3.6220538   -2.1097389 
H     3.0004869   -4.4324100    1.5014231 
H     3.9862576   -3.4726682    0.4178524 
H     0.7259277   -5.1908135    0.6167933 
H     2.8908802   -5.4880544   -0.7033961 
