31
Energy =
C     0.2931664    2.7487209    0.1993127 
S    -0.0345085    2.2772627   -1.5057588 
C     0.4262415    3.8449553   -2.0596445 
H     0.3860239    4.0358539   -3.1198929 
C     0.8040811    4.7332147   -1.1307185 
H     1.1123668    5.7439999   -1.3341230 
C     0.7575573    4.2007062    0.2196612 
O     1.0371749    4.7756844    1.2449068 
H     1.0632627    2.1072286    0.6145828 
H    -0.6047531    2.6264789    0.7947922 
N    -0.4047253   -0.4220030    0.1476868 
H    -2.1690723   -0.7079987    1.1822786 
H    -1.9553968   -0.7273239   -1.1998088 
H    -0.3433505   -0.8227513   -1.8760773 
H    -0.8051656   -0.2407036    2.1782744 
H     1.3684031   -0.3074411    1.2025548 
H     1.5454239   -0.2540575   -0.5429474 
C    -0.9514594   -1.1055349   -1.0189332 
C    -1.1055419   -0.8718064    1.3440338 
C     1.0118486   -0.7438307    0.2705874 
C    -0.8125985   -2.3585531    1.6376709 
C    -0.9553970   -2.6353910   -0.8204398 
C     1.2443611   -2.2688012    0.2570989 
C    -0.1142912   -2.9457929    0.4142686 
H    -1.7324054   -2.9009585    1.8474734 
H    -1.9690506   -3.0071083   -0.6774051 
H    -0.5495131   -3.1409612   -1.6945242 
H     1.9142350   -2.5658023    1.0615908 
H     1.7062010   -2.5838056   -0.6774598 
H    -0.1723024   -2.4637222    2.5123167 
H     0.0091846   -4.0197581    0.5286428 
