13
Energy =
S    -2.2004261   -0.1305418    0.0000000 
Br   -1.9353607    2.0347045    0.0000000 
Br   -4.3797757   -0.3682835    0.0000000 
C     0.8760562   -0.1847170   -0.6000622 
C     0.8760562   -0.1847170    0.6000622 
C     0.8522860   -0.1540559   -2.0490290 
H     1.8189633    0.1415270   -2.4496541 
H     0.6015983   -1.1294203   -2.4587509 
H     0.1088774    0.5587266   -2.4015280 
C     0.8522860   -0.1540559    2.0490290 
H     0.6015983   -1.1294203    2.4587509 
H     1.8189633    0.1415270    2.4496541 
H     0.1088774    0.5587266    2.4015280 
