20
Energy =
H    -1.2106025   -4.9440548   -0.8540518 
H    -1.0344262   -2.7105389   -1.5702806 
C    -1.3966559   -4.2463278   -0.0407985 
C    -1.4053564   -2.7872363   -0.5511194 
H    -2.3520427   -4.5108199    0.4069608 
H    -2.4055197   -2.3635044   -0.5368588 
H     1.1061721   -4.5296069   -0.4847325 
H     1.1725344   -2.2172116   -0.8771925 
N    -0.3625798   -4.4171118    0.9698263 
C     0.9082739   -3.9648920    0.4234978 
C     0.8480209   -2.4496301    0.1355701 
N    -0.5303838   -1.9722697    0.2962183 
C    -0.6910576   -3.6016883    2.1301878 
H     1.6984431   -4.1964063    1.1338524 
C    -0.9143173   -2.1330479    1.7015633 
H    -1.5810595   -4.0094237    2.6039311 
H     1.4740597   -1.8807123    0.8199133 
H    -1.9575963   -1.8484960    1.8035957 
H     0.1271270   -3.6835370    2.8421348 
H    -0.3249824   -1.4381180    2.2946938 
