16
Energy =
O     1.2743686    0.0077778    0.0000000 
Se   -1.6936412   -0.3926161    0.0000000 
C     1.7570071   -0.6098734   -1.1669345 
C     1.7570071   -0.6098734    1.1669345 
H     1.3389201   -0.0808432   -2.0161099 
H     2.8468885   -0.5612582   -1.2134987 
H     1.4501215   -1.6572417   -1.2134706 
H     1.3389201   -0.0808432    2.0161099 
H     1.4501215   -1.6572417    1.2134706 
H     2.8468885   -0.5612582    1.2134987 
C    -3.5308526   -0.4621692    0.0000000 
C    -1.5708770    1.5543893    0.0000000 
H    -0.5070176    1.7558188    0.0000000 
H    -2.0390050    1.9457076    0.8926372 
H    -2.0390050    1.9457076   -0.8926372 
N    -4.6798446   -0.5361830    0.0000000 
