45
Energy =
Te   -0.4200480   -0.4327058   -0.0401831 
O    -1.1043343   -3.2399985   -3.0314375 
N    -1.3597703   -1.9354359   -1.1591214 
C     1.0270588   -0.7717126   -1.5030510 
C     2.2662582   -0.1667121   -1.6386530 
H     2.5940812    0.5831753   -0.9413222 
C     0.6279842   -1.7439719   -2.4112184 
C    -0.6946298   -2.3922712   -2.2583860 
C     3.0933547   -0.5334552   -2.6837042 
H     4.0572995   -0.0593513   -2.7873692 
C    -2.6538037   -2.3528279   -0.8106323 
C     2.6969727   -1.5035671   -3.5945036 
H     3.3512723   -1.7829486   -4.4048015 
C     1.4656089   -2.1076786   -3.4552519 
H     1.1176656   -2.8681903   -4.1369348 
C    -2.9979957   -2.4342703    0.5348684 
H    -2.2465956   -2.2395235    1.2859783 
C    -3.6167822   -2.6487256   -1.7719823 
H    -3.3562373   -2.6012201   -2.8135146 
C    -4.8898193   -3.0148680   -1.3804510 
H    -5.6253399   -3.2429275   -2.1363274 
C    -4.2774284   -2.7930206    0.9160064 
H    -4.5223274   -2.8527267    1.9650561 
C    -5.2314526   -3.0876536   -0.0403067 
H    -6.2286812   -3.3738006    0.2538519 
N     0.9607105    1.5284301    1.1528173 
H     1.9875908    0.2660910    2.4345113 
H    -0.2560676    0.9068780    2.7188065 
H     2.9383535    0.8662594    1.0921535 
H    -0.9721598    2.1004668    1.6466472 
C     2.2006870    1.1487844    1.8368715 
C    -0.0578336    1.8242618    2.1677170 
H     1.9262973    2.5153877   -0.4074363 
H     0.2490260    2.9589700   -0.1684840 
C     1.1787057    2.7351545    0.3485676 
C     2.6940352    2.3322741    2.7024589 
C     0.4425741    2.9551982    3.0935125 
C     1.6274157    3.8941283    1.2697277 
H     2.8138046    2.0337802    3.7412326 
N     1.7415181    3.4302533    2.6440360 
H     0.5419225    2.6067623    4.1187477 
H     3.6564676    2.6978893    2.3522148 
H    -0.2504178    3.7930289    3.0958827 
H     2.5918874    4.2886979    0.9589535 
H     0.9131723    4.7136917    1.2444528 
