12
Energy =
O     0.1237978    0.0996739    0.0000000 
C    -0.6788904    0.0427012   -1.0925236 
C    -1.9677249   -0.0494590   -0.7133114 
C    -1.9677249   -0.0494590    0.7133114 
C    -0.6788904    0.0427012    1.0925236 
Te    2.9625160    0.6099883    0.0000000 
Br    5.4628740    0.3968377    0.0000000 
H    -0.1815974    0.0781034   -2.0412679 
H    -2.8178420   -0.1104228   -1.3649313 
H    -2.8178420   -0.1104228    1.3649313 
H    -0.1815974    0.0781034    2.0412679 
H     2.7429216   -1.0283453    0.0000000 
