19
Energy =
H     2.6978151   -5.4105884    1.4579508 
H     1.8774679   -5.4880760   -2.1103297 
C     1.2698858   -5.9981777   -1.3626751 
C     1.8298255   -5.9454506    1.0720869 
C    -0.1347924   -2.0687476   -1.0098431 
C     0.3745630   -2.0208756    1.2066988 
C     0.3109354   -3.3591895   -1.1420749 
C     0.8454252   -3.3090460    1.1842357 
C     0.8285814   -4.0315937   -0.0214243 
N    -0.1088370   -1.3935513    0.1369486 
N     1.2864184   -5.3007104   -0.0992275 
H     0.3874270   -1.4496783    2.1234054 
H    -0.5292318   -1.5359173   -1.8626194 
H     0.2586580   -3.8327919   -2.1061407 
H     1.2235954   -3.7421370    2.0930198 
H     1.6708501   -6.9936753   -1.2224362 
H     2.1391272   -6.9494650    0.8118217 
H     1.0895754   -6.0141239    1.8687192 
H     0.2567991   -6.0921609   -1.7526701 
