16
Energy =
Te    2.0020468    0.7352167    0.0000000 
Se   -1.5323037   -0.0933963    0.0000000 
C     1.9061610   -0.7225628   -1.5593737 
C     1.9061610   -0.7225628    1.5593737 
H     1.9410531   -0.1946755   -2.5050031 
H     2.7551375   -1.3897772   -1.4800288 
H     0.9745481   -1.2701681   -1.4815224 
H     1.9410531   -0.1946755    2.5050031 
H     0.9745481   -1.2701681    1.4815224 
H     2.7551375   -1.3897772    1.4800288 
C    -3.2854855   -0.6608269    0.0000000 
C    -1.9553938    1.8108615    0.0000000 
H    -0.9898907    2.3018455    0.0000000 
H    -2.5122654    2.0564552    0.8936325 
H    -2.5122654    2.0564552   -0.8936325 
N    -4.3682417   -1.0522438    0.0000000 
