26
Energy =
Se    1.6552936   -2.4177269    0.0004713 
C     2.2310886    1.6662680   -0.0001727 
H     1.5422149    2.4963172   -0.0002769 
N     0.0522956   -1.2281843    0.0006056 
C     1.7061561    0.3797494    0.0003023 
C     3.5952239    1.8457611   -0.0005871 
H     4.0143592    2.8402465   -0.0011122 
C    -1.2113224   -1.7649183    0.0000292 
C     2.5459135   -0.7378814    0.0002998 
C    -3.6040555   -1.1439408   -0.0008804 
H    -3.8177099   -2.2015494   -0.0017002 
N    -0.6247569    1.0369957    0.0010615 
O    -1.3977802   -2.9702054   -0.0003017 
C    -4.2660029    1.1564040    0.0003861 
H    -5.0495791    1.8998495    0.0005966 
C     3.9231790   -0.5496908   -0.0000016 
H     4.5741242   -1.4078742   -0.0000315 
C    -1.9168882    0.6073503    0.0006599 
C     0.2848114    0.1017892    0.0006998 
C    -4.6020987   -0.2015678   -0.0005962 
H    -5.6383473   -0.5022248   -0.0011523 
C     4.4316373    0.7328097   -0.0004382 
H     5.5030192    0.8690352   -0.0007207 
C    -2.9549392    1.5553397    0.0009979 
H    -2.6828510    2.5992491    0.0016852 
C    -2.2655783   -0.7555730   -0.0000884 
