29
Energy =
C    -3.6964422    0.4512442   -0.4228500 
C    -2.3684551    0.0713640   -0.5415417 
C    -1.9920935   -1.2553293   -0.3474771 
C    -2.9506849   -2.2062959   -0.0242777 
C    -4.2688268   -1.8140487    0.0933816 
C    -4.6513338   -0.4908721   -0.1051720 
H    -3.9430230    1.4891335   -0.5868931 
H    -2.6598649   -3.2325869    0.1284662 
H    -5.0126272   -2.5561609    0.3440636 
H    -5.6885873   -0.2078106   -0.0106294 
N    -0.1178899    0.3706292   -0.9003340 
C    -1.2961279    1.0221449   -0.8778344 
O    -1.4576318    2.2203134   -1.1018789 
C     1.1047785    1.0265776   -1.2530418 
H     0.8571324    2.0779855   -1.4037695 
H     1.4824234    0.6406248   -2.2026770 
C     2.1880948    0.8935322   -0.2142112 
C     3.5219454    0.8866972   -0.5953866 
C     1.8810802    0.7908833    1.1348601 
C     4.5304933    0.7949243    0.3475381 
H     3.7710383    0.9393263   -1.6458769 
C     2.8858986    0.6958835    2.0800738 
H     0.8452000    0.7614095    1.4339970 
C     4.2147960    0.7002815    1.6915471 
H     5.5626490    0.7816572    0.0313037 
H     2.6291431    0.6035253    3.1242721 
H     4.9977493    0.6145818    2.4294372 
Se   -0.1321361   -1.5496429   -0.5613428 
I    -0.2366980   -4.5199718   -0.0437466 
