25
Energy =
Te   -0.4200480   -0.4327058   -0.0401831 
O    -1.1043343   -3.2399985   -3.0314375 
N    -1.3597703   -1.9354359   -1.1591214 
C     1.0270588   -0.7717126   -1.5030510 
C     2.2662582   -0.1667121   -1.6386530 
H     2.5940812    0.5831753   -0.9413222 
C     0.6279842   -1.7439719   -2.4112184 
C    -0.6946298   -2.3922712   -2.2583860 
C     3.0933547   -0.5334552   -2.6837042 
H     4.0572995   -0.0593513   -2.7873692 
C    -2.6538037   -2.3528279   -0.8106323 
C     2.6969727   -1.5035671   -3.5945036 
H     3.3512723   -1.7829486   -4.4048015 
C     1.4656089   -2.1076786   -3.4552519 
H     1.1176656   -2.8681903   -4.1369348 
C    -2.9979957   -2.4342703    0.5348684 
H    -2.2465956   -2.2395235    1.2859783 
C    -3.6167822   -2.6487256   -1.7719823 
H    -3.3562373   -2.6012201   -2.8135146 
C    -4.8898193   -3.0148680   -1.3804510 
H    -5.6253399   -3.2429275   -2.1363274 
C    -4.2774284   -2.7930206    0.9160064 
H    -4.5223274   -2.8527267    1.9650561 
C    -5.2314526   -3.0876536   -0.0403067 
H    -6.2286812   -3.3738006    0.2538519 
