20
Energy =
C    -1.3939527   -0.8552624   -1.9937223 
C     0.0036632   -1.6118987   -0.3676647 
C    -0.4598681   -2.9083803   -0.4987507 
C    -1.4430613   -3.1647832   -1.4357508 
C    -1.9214428   -2.1172531   -2.2001060 
H    -1.7439698   -0.0114926   -2.5714574 
H     0.7720617   -1.3674500    0.3536379 
H    -0.0564523   -3.6935780    0.1198304 
H    -1.8296438   -4.1631657   -1.5680901 
H    -2.6881738   -2.2696871   -2.9422641 
N    -0.4505482   -0.6009907   -1.0971494 
Te    1.3344754    1.9069089   -0.4102405 
C     0.2669512    1.5139898    1.2902735 
C     0.6820863    2.2692257    2.3298949 
C     1.7543719    3.1830824    2.0981496 
C     2.2724993    3.2291599    0.8505677 
H     0.2198792    2.1894515    3.3032279 
H     2.1310254    3.8090395    2.8941361 
H     3.0816933    3.8678998    0.5427639 
H    -0.5315942    0.7951842    1.3027143 
