16
Energy =
S     1.8081436    0.5157620    0.0000000 
S    -1.5748616   -0.1180977    0.0000000 
C     1.8191253   -0.6491950   -1.3670697 
C     1.8191253   -0.6491950    1.3670697 
H     1.8027651   -0.0725257   -2.2857088 
H     2.7193732   -1.2559626   -1.3473612 
H     0.9406694   -1.2876784   -1.3365632 
H     1.8027651   -0.0725257    2.2857088 
H     0.9406694   -1.2876784    1.3365632 
H     2.7193732   -1.2559626    1.3473612 
C    -3.1853123   -0.6064082    0.0000000 
C    -1.8195280    1.6749142    0.0000000 
H    -0.8159903    2.0848778    0.0000000 
H    -2.3508284    1.9808114    0.8921637 
H    -2.3508284    1.9808114   -0.8921637 
N    -4.2746607   -0.9819475    0.0000000 
