21
Energy =
N     1.3835534   -2.0739521   -0.2698985 
H    -0.4450324   -2.5469058   -1.1155123 
H     1.4789211   -1.8910360   -2.3272883 
H     2.9904598   -1.6026508   -1.4916610 
H    -0.3762507   -2.7020022    0.6215775 
H     1.6574143   -2.3044479    1.7657738 
H     3.0890134   -1.8191291    0.8820125 
C     2.1142416   -2.2479997   -1.5201186 
C     0.1764950   -2.8962936   -0.2944692 
C     2.2224911   -2.4774183    0.8528892 
C     0.5176212   -4.3931576   -0.4416551 
C     2.5229632   -3.7215369   -1.7348035 
C     2.6569823   -3.9541790    0.7309682 
C     2.0333143   -4.5280917   -0.5367853 
H     0.0499956   -4.8109001   -1.3309867 
H     2.0858635   -4.1145669   -2.6506121 
H     3.6031931   -3.8143041   -1.8303394 
H     2.3311280   -4.5258064    1.5976740 
H     3.7412287   -4.0367548    0.6823984 
H     0.1468901   -4.9602411    0.4099403 
H     2.3113028   -5.5729984   -0.6504849 
