19
Energy =
H     2.0556474   -3.7333782    1.9252601 
H     3.0559329   -3.0226246   -1.5974089 
C     2.2338708   -3.6786549   -1.3098818 
C     1.5661530   -4.1553336    1.0471301 
C     0.4795295    0.1137659   -0.9109503 
C    -0.1285650   -0.3192044    1.2132733 
C     1.0679094   -1.1219024   -1.0611631 
C     0.4272705   -1.5784355    1.1837574 
C     1.0579773   -2.0231697    0.0130181 
N    -0.1179361    0.5371470    0.1976407 
N     1.6253535   -3.2546283   -0.0752521 
H    -0.6158880    0.0190346    2.1181101 
H     0.4883554    0.8093915   -1.7396181 
H     1.5257296   -1.3748865   -2.0015676 
H     0.3660954   -2.2004622    2.0596764 
H     2.6301390   -4.6786830   -1.1852212 
H     2.0737283   -5.0767028    0.7900801 
H     0.5374981   -4.3977145    1.3182823 
H     1.5147101   -3.6973853   -2.1301585 
