28
Energy =
C    -3.1918890    3.4649174    0.2757848 
C    -2.0850659    2.7617331   -0.1746013 
C    -1.8889189    1.4415287    0.2142623 
C    -2.8001026    0.8288748    1.0594851 
C    -3.9004395    1.5375848    1.5045506 
C    -4.1004769    2.8554780    1.1153946 
H    -3.3088972    4.4855394   -0.0544539 
H    -2.6624789   -0.1907832    1.3724747 
H    -4.6096158    1.0571379    2.1611898 
H    -4.9635091    3.3972032    1.4684104 
N    -0.0845294    2.5566899   -1.3830091 
C    -1.1044241    3.3954265   -1.0852894 
O    -1.2168922    4.5352396   -1.5109314 
C     0.9253673    2.9595747   -2.3333358 
H     0.8777325    4.0459747   -2.3957144 
H     0.6921439    2.5715794   -3.3266320 
C     2.2994594    2.5047721   -1.9331645 
C     3.1225687    1.8515932   -2.8371409 
C     2.7696349    2.7371605   -0.6458981 
C     4.3948281    1.4446512   -2.4706819 
H     2.7612557    1.6589059   -3.8368255 
C     4.0374986    2.3322124   -0.2765474 
H     2.1261173    3.2320722    0.0659158 
C     4.8551745    1.6842846   -1.1890145 
H     5.0236422    0.9379583   -3.1862074 
H     4.3903878    2.5213395    0.7253768 
H     5.8452052    1.3676751   -0.9002541 
Te   -0.1380506    0.6357514   -0.5897845 
