20
Energy =
N    -3.1978195    1.6205574    0.1288694 
S    -1.8365475    0.6333472    0.2298151 
C    -0.9334671    1.8393546   -0.5803984 
H     0.1049694    1.6380983   -0.7640146 
C    -1.6475866    2.9268540   -0.9015468 
H    -1.2629737    3.7910043   -1.4117027 
C    -3.0417793    2.8467260   -0.4902918 
H    -4.0845510    1.3363013    0.5016296 
O    -3.9387756    3.6529648   -0.6296085 
C     2.4685577   -1.6792232    1.4394394 
C     1.4682856   -0.7444841    1.2437134 
C     2.6483684   -2.6620729    0.4844844 
C     0.8503324   -1.6925136   -0.7291893 
C     1.8223122   -2.6705951   -0.6235712 
N     0.6728432   -0.7439503    0.1816008 
H     0.1829307   -1.6680662   -1.5790830 
H     3.0876958   -1.6340615    2.3205541 
H     1.2949397    0.0371198    1.9698981 
H     3.4178919   -3.4087721    0.6022691 
H     1.9243733   -3.4185888   -1.3928671 
