26
Energy =
Te    1.7168692   -2.6720070   -0.0005602 
C     2.1862487    1.6250435    0.0001018 
H     1.4649184    2.4269251    0.0000127 
N     0.0136260   -1.2886184   -0.0000216 
C     1.7082314    0.3187529    0.0000232 
C     3.5419272    1.8644449    0.0001105 
H     3.9154370    2.8772150    0.0001124 
C    -1.2621024   -1.7828734    0.0000985 
C     2.5973595   -0.7612738   -0.0002363 
C    -3.6452173   -1.1089297   -0.0000398 
H    -3.8876417   -2.1603810    0.0001523 
N    -0.6094241    0.9908373    0.0004422 
O    -1.4750326   -2.9882744    0.0003794 
C    -4.2459776    1.2084994   -0.0000670 
H    -5.0096929    1.9724725   -0.0002424 
C     3.9637855   -0.5098379   -0.0000668 
H     4.6549603   -1.3368499    0.0001103 
C    -1.9120325    0.5969554    0.0001466 
C     0.2787176    0.0322843    0.0001815 
C    -4.6180601   -0.1402603   -0.0000835 
H    -5.6620806   -0.4130891   -0.0002147 
C     4.4261655    0.7911729    0.0001052 
H     5.4911282    0.9718989    0.0004184 
C    -2.9247102    1.5724993    0.0001003 
H    -2.6252797    2.6090021    0.0002214 
C    -2.2970628   -0.7561814   -0.0000417 
