28
Energy =
N     0.5394300    0.1337100   -0.9821981 
C    -0.5009158    0.0162606   -1.7995447 
C     0.2906044   -0.0696734    0.3071135 
C    -1.7809508   -0.2956606   -1.3987520 
H    -0.3029105    0.1834526   -2.8495866 
C    -0.9445469   -0.3872205    0.8262554 
H     1.1368495    0.0318392    0.9742359 
C    -2.0411503   -0.5126901   -0.0381867 
H    -2.5601957   -0.3664534   -2.1375410 
H    -1.0468347   -0.5312557    1.8877442 
N    -3.2836290   -0.8255778    0.4159038 
C    -4.3843975   -0.9171608   -0.5079887 
H    -5.2837401   -1.1778964    0.0360128 
H    -4.5605006    0.0283405   -1.0232910 
H    -4.2112132   -1.6847361   -1.2628829 
C    -3.5072733   -1.0111797    1.8264106 
H    -4.5493231   -1.2553663    1.9914604 
H    -2.9016577   -1.8259003    2.2244317 
H    -3.2746421   -0.1096756    2.3952510 
Se    3.1973392    2.0568274   -0.5671111 
C     3.7957056    0.3070424   -0.5150696 
C     5.0765234    0.2290360   -0.0845226 
C     5.6779477    1.4779501    0.2309319 
C     4.8734058    2.5520292    0.0491817 
H     5.5986940   -0.7099116    0.0087324 
H     6.6923856    1.5644074    0.5863840 
H     5.1190018    3.5833913    0.2242119 
H     3.1359943   -0.4839282   -0.8175863 
