18
Energy =
S     2.2254810    0.5829066    0.0000000 
Te   -1.2269777   -0.2977842    0.0000000 
C     2.3842195   -0.5702510   -1.3672300 
C     2.3842195   -0.5702510    1.3672300 
H     2.2889639    0.0011713   -2.2843130 
H     3.3544290   -1.0578952   -1.3511653 
H     1.5908517   -1.3120794   -1.3358953 
H     2.2889639    0.0011713    2.2843130 
H     1.5908517   -1.3120794    1.3358953 
H     3.3544290   -1.0578952    1.3511653 
C    -1.4390952    1.8269048    0.0000000 
C    -3.3441848   -0.6361585    0.0000000 
H    -0.4365367    2.2367791    0.0000000 
H    -1.9698103    2.1399830   -0.8906674 
H    -1.9698103    2.1399830    0.8906674 
H    -3.5069405   -1.7079626    0.0000000 
H    -3.7845268   -0.2032713    0.8900301 
H    -3.7845268   -0.2032713   -0.8900301 
