12
Energy =
S     0.3309168    0.0633015    0.0000000 
C    -0.8467044    0.0146223   -1.2295362 
C    -2.1005796   -0.0361155   -0.7077074 
C    -2.1005796   -0.0361155    0.7077074 
C    -0.8467044    0.0146223    1.2295362 
S     3.6446782    0.5378787    0.0000000 
Cl    5.6612232    0.2945349    0.0000000 
H    -0.5536752    0.0284315   -2.2624905 
H    -2.9915096   -0.0713928   -1.3111651 
H    -2.9915096   -0.0713928    1.3111651 
H    -0.5536752    0.0284315    2.2624905 
H     3.3481195   -0.7668060    0.0000000 
