29
Energy =
C    -3.5130678    0.4894362   -0.2323825 
C    -2.2652026   -0.0615862   -0.4853905 
C    -2.0835319   -1.4417652   -0.4252541 
C    -3.1562069   -2.2651505   -0.1112678 
C    -4.3942155   -1.7036571    0.1384153 
C    -4.5800377   -0.3270474    0.0797606 
H    -3.6067264    1.5633636   -0.2901247 
H    -3.0114391   -3.3323677   -0.0670283 
H    -5.2262163   -2.3482253    0.3827194 
H    -5.5526590    0.0982713    0.2773988 
N    -0.0007353    0.0857508   -1.0160628 
C    -1.1133565    0.8077602   -0.8208603 
O    -1.2031808    2.0355230   -0.9025184 
C     1.2133735    0.7580995   -1.3664454 
H     0.9536173    1.7758695   -1.6636619 
H     1.6715661    0.2698125   -2.2294394 
C     2.2356953    0.8254620   -0.2587251 
C     3.5622538    1.1075544   -0.5577589 
C     1.8810716    0.6362288    1.0675947 
C     4.5121151    1.2087874    0.4419397 
H     3.8520970    1.2452755   -1.5904360 
C     2.8289412    0.7353614    2.0715943 
H     0.8561176    0.3979807    1.3030508 
C     4.1472500    1.0233189    1.7652162 
H     5.5392985    1.4251060    0.1884928 
H     2.5351416    0.5798672    3.0986852 
H     4.8863621    1.0944562    2.5486906 
Te   -0.1312313   -2.0763301   -0.8270774 
Cl   -0.8370938   -4.6071555   -0.5191250 
