21
Energy =
C    -0.6067109    0.4442902   -1.1301639 
C    -0.9629395    1.9378753   -1.2586643 
H     0.2652390    0.1977658   -1.7320256 
H    -1.4200698   -0.1941309   -1.4666919 
H    -0.4494773    2.3835930   -2.1078011 
H    -2.0309644    2.0681771   -1.4250884 
C     0.9493626    0.7567561    0.6524884 
H     1.0904530    0.5705806    1.7147123 
H     1.7732291    0.2735392    0.1322565 
C     0.8953498    2.2659840    0.3470759 
H     1.2626177    2.8423020    1.1933821 
H     1.5255338    2.5120122   -0.5060948 
C    -1.4355801    2.0987740    1.1667251 
H    -1.0740882    2.4718805    2.1234996 
H    -2.4585258    2.4499886    1.0510973 
C    -1.3806643    0.5608843    1.1217519 
H    -1.2286948    0.1372299    2.1126986 
H    -2.3057461    0.1419267    0.7312684 
N    -0.2957842    0.1020121    0.2563312 
C    -0.5545909    2.6288329    0.0392205 
H    -0.6644848    3.7059856   -0.0536875 
