19
Energy =
N     0.8585292   -0.5886764    0.8098894 
C     0.3258618   -0.4131942   -0.3945807 
C    -0.0024533   -0.8053729    1.7977641 
C    -1.0234578   -0.4453047   -0.6678368 
H     1.0242909   -0.2276446   -1.2000360 
C    -1.3705206   -0.8582818    1.6485642 
H     0.4261127   -0.9458329    2.7808481 
C    -1.9300298   -0.6769756    0.3759110 
H    -1.3585942   -0.2881236   -1.6782575 
H    -1.9869030   -1.0372625    2.5123458 
N    -3.2727676   -0.7222220    0.1667337 
C    -3.8016115   -0.4991562   -1.1539296 
H    -4.8807460   -0.5848822   -1.1234062 
H    -3.5491142    0.4935940   -1.5300640 
H    -3.4242177   -1.2343204   -1.8651510 
C    -4.1663231   -0.9247904    1.2774998 
H    -5.1870335   -0.9304633    0.9156590 
H    -3.9785174   -1.8770574    1.7744206 
H    -4.0736113   -0.1325024    2.0220650 
