16
Energy =
O     1.4009401    0.1421587    0.0000000 
S    -1.6574278   -0.3052013    0.0000000 
C     1.7207089   -0.5749465   -1.1651478 
C     1.7207089   -0.5749465    1.1651478 
H     1.4490161    0.0406470   -2.0157022 
H     2.7894906   -0.7957566   -1.2094288 
H     1.1652599   -1.5146554   -1.2135029 
H     1.4490161    0.0406470    2.0157022 
H     1.1652599   -1.5146554    1.2135029 
H     2.7894906   -0.7957566    1.2094288 
C    -3.3275927   -0.5022408    0.0000000 
C    -1.5793008    1.5040187    0.0000000 
H    -0.5186390    1.7272875    0.0000000 
H    -2.0498517    1.8979514    0.8916993 
H    -2.0498517    1.8979514   -0.8916993 
N    -4.4672275   -0.6725027    0.0000000 
