12
Energy =
S    -0.0982602   -1.5632097    0.0000000 
C    -0.7914682   -0.6020211   -1.2298017 
C    -1.5267277    0.4124023   -0.7088249 
C    -1.5267277    0.4124023    0.7088249 
C    -0.7914682   -0.6020211    1.2298017 
Se    2.4606250    0.4783747    0.0000000 
Br    4.4602524    1.6828619    0.0000000 
H    -0.6123064   -0.8342631   -2.2626961 
H    -2.0470832    1.1366735   -1.3118827 
H    -2.0470832    1.1366735    1.3118827 
H    -0.6123064   -0.8342631    2.2626961 
H     3.1325538   -0.8236101    0.0000000 
