27
Energy =
Te    1.7329581   -2.6795769   -0.0006108 
C     2.1895809    1.6194254    0.0004531 
H     1.4680518    2.4210981    0.0006549 
N     0.0189727   -1.2958415    0.0000595 
C     1.7121491    0.3128782    0.0002027 
C     3.5452180    1.8595612    0.0003066 
H     3.9181872    2.8725564    0.0003225 
C    -1.2572520   -1.7882853    0.0001938 
C     2.6018196   -0.7664092   -0.0002017 
C    -3.6406087   -1.1136458   -0.0001423 
H    -3.8829476   -2.1651306   -0.0002732 
N    -0.6048274    0.9850004    0.0005327 
O    -1.4728874   -2.9935522    0.0004671 
C    -4.2412883    1.2037670   -0.0001226 
H    -5.0049293    1.9678550   -0.0002426 
C     3.9686821   -0.5144599   -0.0002622 
H     4.6577317   -1.3429108   -0.0003865 
C    -1.9071765    0.5918061    0.0002267 
C     0.2825425    0.0248050    0.0003490 
C    -4.6135466   -0.1450426   -0.0002701 
H    -5.6576234   -0.4177567   -0.0005036 
C     4.4302797    0.7867008   -0.0000014 
H     5.4951200    0.9686263    0.0000778 
C    -2.9200344    1.5675327    0.0001267 
H    -2.6205034    2.6040270    0.0002230 
C    -2.2923713   -0.7612791    0.0001212 
Cl    4.0947028   -3.8017490   -0.0013003 
