28
Energy =
C    -3.6751059    1.9230115   -0.2037911 
C    -2.3588860    1.5591552   -0.4393413 
C    -1.9757987    0.2257022   -0.3819154 
C    -2.9040107   -0.7606571   -0.0858618 
C    -4.2133236   -0.3855841    0.1456669 
C    -4.6046103    0.9481915    0.0880447 
H    -3.9346113    2.9689902   -0.2571529 
H    -2.6117837   -1.7944929   -0.0341714 
H    -4.9433605   -1.1459699    0.3769336 
H    -5.6328226    1.2151178    0.2727475 
N    -0.1208312    1.8729109   -0.9420015 
C    -1.2987731    2.5288857   -0.7524620 
O    -1.4367357    3.7374584   -0.8302098 
C     1.1017131    2.5685368   -1.2558433 
H     0.8144804    3.6115064   -1.3810958 
H     1.4991164    2.2146573   -2.2068681 
C     2.1501619    2.4331543   -0.1858244 
C     3.4616242    2.1325055   -0.5150205 
C     1.8172909    2.6229648    1.1486446 
C     4.4310772    2.0298828    0.4689015 
H     3.7258368    1.9742151   -1.5506937 
C     2.7812483    2.5193898    2.1325351 
H     0.7946281    2.8502648    1.4100119 
C     4.0925397    2.2233182    1.7952761 
H     5.4484101    1.7934680    0.1982917 
H     2.5110462    2.6711992    3.1660115 
H     4.8447480    2.1423822    2.5642691 
Se   -0.1322769    0.0150882   -0.7343368 
