28
Energy =
N     4.1165130    1.8580875    2.6371576 
S     2.7101506    1.3200958    1.8740408 
C     3.6787139    0.3971929    0.8082864 
H     3.1693806   -0.1808002    0.0608010 
C     4.9950810    0.5060522    1.0366028 
H     5.7633118    0.0055531    0.4759098 
C     5.3193567    1.3898677    2.1464645 
H     4.0856919    2.4923676    3.4134339 
O     6.4035813    1.6974106    2.6012971 
H    -3.2680279   -2.8263601   -0.8319032 
H    -3.0548679    0.0562156   -3.1487543 
C    -3.6847592    0.0421293   -2.2588569 
C    -3.8284108   -1.9007700   -0.6971984 
C     0.0681578    0.9352984   -0.6106442 
C    -0.0617961   -0.8204113    0.8012603 
C    -1.1593148    0.6588039   -1.1666527 
C    -1.2963492   -1.1935362    0.3226957 
C    -1.8926221   -0.4435731   -0.7022999 
N     0.6336967    0.2216761    0.3575772 
N    -3.1077379   -0.7646497   -1.2134710 
H     0.3971667   -1.3954498    1.5937636 
H     0.6329000    1.7866085   -0.9652730 
H    -1.5366917    1.2951221   -1.9478249 
H    -1.7843766   -2.0544028    0.7449435 
H    -4.6474672   -0.3697677   -2.5342005 
H    -4.7677183   -1.9956046   -1.2272799 
H    -4.0475585   -1.7897043    0.3653526 
H    -3.8360039    1.0725487   -1.9352277 
