26
Energy =
S     1.5374882   -2.1704396    0.0000000 
C     2.2825896    1.7302727    0.0000000 
H     1.6414211    2.5974121    0.0000000 
N     0.0859713   -1.1425085    0.0000000 
C     1.6968101    0.4705588    0.0000000 
C     3.6532997    1.8304169    0.0000000 
H     4.1300930    2.7982050    0.0000000 
C    -1.1661721   -1.7281893    0.0000000 
C     2.4709917   -0.6938406    0.0000000 
C    -3.5667322   -1.1752479    0.0000000 
H    -3.7484455   -2.2386848    0.0000000 
N    -0.6561909    1.1017786    0.0000000 
O    -1.3053276   -2.9349154    0.0000000 
C    -4.2977533    1.1037978    0.0000000 
H    -5.1034700    1.8227713    0.0000000 
C     3.8594710   -0.5839588    0.0000000 
H     4.4640773   -1.4756827    0.0000000 
C    -1.9336239    0.6285658    0.0000000 
C     0.2842616    0.2038450    0.0000000 
C    -4.5921400   -0.2638813    0.0000000 
H    -5.6183293   -0.5964149    0.0000000 
C     4.4277593    0.6703891    0.0000000 
H     5.5047276    0.7482828    0.0000000 
C    -3.0000689    1.5432738    0.0000000 
H    -2.7593673    2.5946247    0.0000000 
C    -2.2405043   -0.7448325    0.0000000 
