25
Energy =
Se    0.4540881   -1.8415378    0.0551119 
O     0.1368980    2.2273594   -0.1072169 
N    -0.4071814   -0.0187327   -0.0489276 
C     2.0415285   -0.8144931    0.0286811 
C     3.3374052   -1.3139557    0.0614050 
H     3.4938602   -2.3784684    0.1074882 
C     1.8315883    0.5598306   -0.0293251 
C     0.4407288    1.0380485   -0.0603999 
C     4.3974754   -0.4293635    0.0358859 
H     5.4044546   -0.8196007    0.0622908 
C    -1.7923027    0.0793401   -0.0370052 
C     4.1926156    0.9457825   -0.0228745 
H     5.0356123    1.6197792   -0.0424223 
C     2.9053344    1.4368670   -0.0555622 
H     2.6911627    2.4937793   -0.1018151 
C    -2.5532266   -0.9926218   -0.5097292 
H    -2.0499509   -1.8549304   -0.9166623 
C    -2.4678269    1.1972239    0.4626313 
H    -1.8968983    2.0350182    0.8173497 
C    -3.8490060    1.2244841    0.4833672 
H    -4.3477203    2.0993629    0.8742802 
C    -3.9332738   -0.9541311   -0.4773038 
H    -4.4924069   -1.7995225   -0.8496202 
C    -4.5961429    0.1552584    0.0179211 
H    -5.6746725    0.1868468    0.0395521 
