26
Energy =
Se   -0.0018636   -0.9729370    0.0239937 
C    -2.5305332    0.2261358    0.3262767 
C    -2.6940043    2.6897213    0.2643855 
C    -0.6580970    1.7322875    0.0178569 
C    -3.3264281    1.4395238    0.3936187 
C     0.7759334    1.6662083   -0.1770790 
C     1.5970515    2.7749110   -0.3289668 
C    -3.4850140    3.8444874    0.3345093 
C     1.3101824    0.3781446   -0.2061740 
C     2.9499403    2.5942817   -0.5097382 
C    -4.7048813    1.3579295    0.5858131 
C    -4.8394353    3.7481352    0.5241871 
C     2.6726059    0.1974364   -0.3896220 
C     3.4794424    1.3084269   -0.5393755 
C    -5.4591275    2.5017897    0.6512307 
N    -1.3448474    2.8244146    0.0747934 
N    -1.1895954    0.4816571    0.1333149 
O    -2.9293853   -0.9194931    0.4207660 
H     1.1481687    3.7550733   -0.3011565 
H    -2.9955212    4.7998942    0.2351258 
H    -5.1470542    0.3787754    0.6791925 
H     3.5993506    3.4465768   -0.6288366 
H     3.0943132   -0.7914577   -0.4163083 
H    -5.4349961    4.6465720    0.5760647 
H     4.5400753    1.1710012   -0.6823915 
H    -6.5254137    2.4425962    0.7999349 
