25
Energy =
Te    0.4392869   -2.1218569    0.1181099 
O     0.1320900    2.1375351   -0.1733667 
N    -0.4483273   -0.0936905   -0.0778631 
C     2.1135122   -0.8749400    0.0571345 
C     3.4351410   -1.2972431    0.1114255 
H     3.6542918   -2.3491053    0.1944811 
C     1.8251347    0.4829689   -0.0477719 
C     0.4171899    0.9433492   -0.0997930 
C     4.4518604   -0.3628278    0.0604705 
H     5.4783655   -0.6969343    0.1039453 
C    -1.8269321    0.0696435   -0.0599513 
C     4.1693479    0.9939899   -0.0454667 
H     4.9723076    1.7147172   -0.0850186 
C     2.8561762    1.4110664   -0.0987847 
H     2.5858453    2.4527765   -0.1798868 
C    -2.6311133   -0.9391737   -0.5961439 
H    -2.1567936   -1.7872295   -1.0658804 
C    -2.4620437    1.1765385    0.5132520 
H    -1.8601511    1.9695064    0.9173119 
C    -3.8408103    1.2519013    0.5458404 
H    -4.3067359    2.1165255    0.9958778 
C    -4.0091910   -0.8552086   -0.5543349 
H    -4.6005288   -1.6530449   -0.9786219 
C    -4.6289699    0.2424507    0.0167468 
H    -5.7055161    0.3115831    0.0477573 
