28
Energy =
N     4.1397410   -3.2566121    0.0000000 
Se    2.5515748   -2.2988229    0.0000000 
C     3.6767608   -0.8143932    0.0000000 
H     3.2185756    0.1571219    0.0000000 
C     4.9760102   -1.1140657    0.0000000 
H     5.7663975   -0.3834747    0.0000000 
C     5.3055685   -2.5417609    0.0000000 
H     4.1766349   -4.2594247    0.0000000 
O     6.4165458   -3.0404932    0.0000000 
H    -3.1530054    2.4213254   -1.8549698 
H    -3.1530054    2.4213254    1.8549698 
C    -3.7514339    1.7411494    1.2485110 
C    -3.7514339    1.7411494   -1.2485110 
C    -0.0046474   -0.1382352    1.1309015 
C    -0.0046474   -0.1382352   -1.1309015 
C    -1.2262531    0.4889787    1.1912887 
C    -1.2262531    0.4889787   -1.1912887 
C    -1.8890881    0.8239508    0.0000000 
N     0.6172905   -0.4579142    0.0000000 
N    -3.1001601    1.4324882    0.0000000 
H     0.5063339   -0.4055721   -2.0451296 
H     0.5063339   -0.4055721    2.0451296 
H    -1.6555037    0.7079146    2.1530958 
H    -1.6555037    0.7079146   -2.1530958 
H    -4.7009379    2.2192144    1.0438635 
H    -4.7009379    2.2192144   -1.0438635 
H    -3.9425758    0.8422636   -1.8357535 
H    -3.9425758    0.8422636    1.8357535 
