28
Energy =
C    -3.6696511    0.5242464   -0.3276279 
C    -2.3538578    0.1287517   -0.5175648 
C    -1.9798575   -1.2078089   -0.3892789 
C    -2.9327336   -2.1672093   -0.0588413 
C    -4.2352273   -1.7591731    0.1281827 
C    -4.6144282   -0.4228982   -0.0040204 
H    -3.9159554    1.5688419   -0.4405664 
H    -2.6399881   -3.1999818    0.0410748 
H    -4.9778251   -2.5006279    0.3831917 
H    -5.6441375   -0.1377908    0.1474462 
N    -0.1266631    0.2548283   -0.9524898 
C    -1.2503946    1.0180996   -0.8665586 
O    -1.2925467    2.2275895   -1.0575468 
C     1.1439370    0.8001891   -1.3272087 
H     0.9409355    1.8277273   -1.6279596 
H     1.5311545    0.2676772   -2.1968847 
C     2.1850116    0.7863449   -0.2369837 
C     3.5213441    0.9560164   -0.5722089 
C     1.8457852    0.6329844    1.0972352 
C     4.4990839    0.9864127    0.4044188 
H     3.7975894    1.0580130   -1.6123486 
C     2.8233222    0.6564940    2.0770168 
H     0.8130488    0.4767875    1.3648161 
C     4.1517832    0.8365701    1.7365179 
H     5.5337931    1.1161168    0.1253216 
H     2.5438876    0.5225663    3.1106662 
H     4.9130894    0.8477914    2.5012923 
S    -0.2843761   -1.4638294   -0.6785495 
