12
Energy =
S     0.0264426   -1.4402719    0.0000000 
C    -0.7610818   -0.5545068   -1.2305070 
C    -1.5977026    0.3769951   -0.7092266 
C    -1.5977026    0.3769951    0.7092266 
C    -0.7610818   -0.5545068    1.2305070 
Se    2.5524783    0.5046352    0.0000000 
Cl    4.4639814    1.5616921    0.0000000 
H    -0.5584434   -0.7674133   -2.2632065 
H    -2.1910357    1.0431775   -1.3118797 
H    -2.1910357    1.0431775    1.3118797 
H    -0.5584434   -0.7674133    2.2632065 
H     3.1736244   -0.8225602    0.0000000 
