28
Energy =
C    -0.5820921    0.8254953   -1.3163408 
C    -0.7732268    2.3576699   -1.1890758 
H     0.2254488    0.5832208   -2.0062947 
H    -1.4853166    0.3396361   -1.6808469 
H    -0.0622124    2.8989928   -1.8100714 
H    -1.7732859    2.6582179   -1.4951096 
C     0.9706762    0.8765607    0.4815346 
H     1.2146089    0.4199134    1.4387814 
H     1.7758296    0.6340223   -0.2100828 
C     0.7722517    2.4063673    0.6104800 
H     0.9115567    2.7390024    1.6370725 
H     1.4793274    2.9524509   -0.0108785 
C    -1.5378484    2.0743451    1.0397845 
H    -1.3953717    2.4118373    2.0643669 
H    -2.5382915    2.3718459    0.7319046 
C    -1.3412455    0.5437229    0.9169030 
H    -1.0901614    0.0924680    1.8749240 
H    -2.2399265    0.0523175    0.5493027 
N    -0.2549793    0.2603209   -0.0137141 
N    -0.5758433    2.7682324    0.1936559 
S     0.3220279   -2.5943014    0.9243199 
C     0.7739468   -2.7529676   -0.6970293 
C     1.2805895   -4.0025196   -0.8955157 
C     1.2562150   -4.7319774    0.3119352 
N     0.7734517   -4.1072898    1.3575859 
H     1.6453212   -4.3785326   -1.8352968 
H     1.6021837   -5.7480720    0.4265071 
H     0.6463661   -1.9509795   -1.3988018 
