20
Energy =
N     1.3335473   -2.3757332   -0.2916876 
H    -0.3519757   -3.2275104   -1.1595668 
H     1.3945184   -2.1877095   -2.3550314 
H     2.8082155   -1.5690860   -1.5241240 
H    -0.2388095   -3.4148654    0.5825221 
H     1.6397916   -2.5941449    1.7476646 
H     2.9605494   -1.8266645    0.8881722 
C     2.0927314   -2.3859850   -1.5456888 
C     0.3322975   -3.4490664   -0.3430140 
C     2.2328494   -2.6312719    0.8373347 
C     1.0358827   -4.8105491   -0.5354121 
C     2.8002558   -3.7522298   -1.7092775 
C     2.9225493   -4.0033443    0.6474581 
N     2.4773473   -4.6242595   -0.5904754 
H     0.7161010   -5.2891709   -1.4578395 
H     2.4922098   -4.2449310   -2.6284011 
H     3.8803201   -3.6307590   -1.7471170 
H     2.6903527   -4.6755040    1.4701135 
H     4.0038231   -3.8943970    0.6067353 
H     0.8072312   -5.4879687    0.2837370 
