18
Energy =
Se    2.3348302    0.6946905    0.0000000 
Te   -1.2366317   -0.2606160    0.0000000 
C     2.4146923   -0.5939454   -1.4504675 
C     2.4146923   -0.5939454    1.4504675 
H     2.3832818   -0.0323775   -2.3768791 
H     3.3395281   -1.1564296   -1.3962432 
H     1.5566049   -1.2551272   -1.4030018 
H     2.3832818   -0.0323775    2.3768791 
H     1.5566049   -1.2551272    1.4030018 
H     3.3395281   -1.1564296    1.3962432 
C    -1.4967393    1.8587111    0.0000000 
C    -3.3454360   -0.6488954    0.0000000 
H    -0.5029711    2.2896658    0.0000000 
H    -2.0337969    2.1599813   -0.8909214 
H    -2.0337969    2.1599813    0.8909214 
H    -3.4821035   -1.7243238    0.0000000 
H    -3.7957845   -0.2267177    0.8901360 
H    -3.7957845   -0.2267177   -0.8901360 
