45
Energy =
Se   -0.6962960    0.3553385   -0.1239390 
C     1.0446101    3.9490527    0.7821491 
H     0.6543709    4.9542550    0.7978993 
N    -1.7844642    1.9015828   -0.2279023 
C     0.1904705    2.9142824    0.4265375 
C     2.3535162    3.6666684    1.1020459 
H     3.0275942    4.4609100    1.3800161 
C    -3.1034331    1.7611563   -0.6006593 
C     0.6460483    1.5959805    0.3906672 
C    -5.1606305    3.0610640   -0.9980091 
H    -5.6429726    2.1273543   -1.2400613 
N    -1.8106285    4.2362070    0.0464243 
O    -3.5587150    0.6615581   -0.8566352 
C    -5.1644062    5.4386902   -0.7126996 
H    -5.6962474    6.3772464   -0.7437050 
C     1.9649399    1.3138279    0.7144853 
H     2.3266447    0.3015884    0.6926691 
C    -3.1312457    4.2143747   -0.3119588 
C    -1.2028612    3.0956204    0.0727024 
C    -5.8345418    4.2553086   -1.0359078 
H    -6.8761127    4.2841155   -1.3133773 
C     2.8053443    2.3517637    1.0666160 
H     3.8315073    2.1328041    1.3186809 
C    -3.8403616    5.4228227   -0.3573687 
H    -3.3127753    6.3285780   -0.1051150 
C    -3.8139178    3.0285104   -0.6389666 
H     2.5461786   -5.9924827   -2.0132627 
H     1.5377405   -6.4922660    1.4481420 
C     2.5734196   -6.2810620    1.1795471 
C     2.1167868   -4.1958473    0.0350670 
C     3.2653481   -5.9376428   -1.1952255 
C     0.9514258   -2.4160062    1.1439287 
C     1.5786076   -2.1047816   -1.0104142 
C     1.4868313   -3.6807874    1.1794353 
C     2.1470356   -3.3531051   -1.0877603 
N     0.9893100   -1.6209334    0.0789081 
N     2.6609060   -5.4362246    0.0141943 
H     1.5908740   -1.4531446   -1.8726195 
H     0.4585902   -2.0150885    2.0182881 
H     1.4074817   -4.2573250    2.0840413 
H     2.6006472   -3.6651755   -2.0118050 
H     3.0682589   -7.2215294    0.9731117 
H     3.6478759   -6.9338967   -1.0132711 
H     4.0963110   -5.3093676   -1.5153224 
H     3.0609344   -5.8239948    2.0404292 
