28
Energy =
C    -3.1478415    1.2634293    0.4151440 
C    -2.2390875    0.3554903   -0.1100813 
C    -2.5221716   -1.0024432   -0.1269035 
C    -3.7322507   -1.4566945    0.3826817 
C    -4.6355312   -0.5526294    0.9057562 
C    -4.3470664    0.8096342    0.9234238 
H    -2.8859582    2.3106094    0.4094143 
H    -3.9729657   -2.5105319    0.3712209 
H    -5.5753865   -0.9066140    1.3038142 
H    -5.0626303    1.5055821    1.3336493 
N    -0.2035734   -0.2405605   -1.1496407 
C    -0.9434823    0.7870594   -0.6639823 
O    -0.5709620    1.9573807   -0.6825608 
C     1.1255380    0.0562734   -1.6570098 
H     1.0599930    1.0001564   -2.1930319 
H     1.4076749   -0.7295193   -2.3509617 
C     2.1526346    0.1642639   -0.5618035 
C     2.7785655   -0.9767217   -0.0756870 
C     2.4869074    1.3982615   -0.0202979 
C     3.7228950   -0.8834736    0.9313040 
H     2.5336308   -1.9358420   -0.5082432 
C     3.4331959    1.4916704    0.9858707 
H     1.9821345    2.2789206   -0.3854381 
C     4.0539281    0.3505430    1.4651748 
H     4.2068989   -1.7782962    1.2930852 
H     3.6843242    2.4575258    1.3985618 
H     4.7934744    0.4228457    2.2489009 
Te   -1.0093786   -2.1446179   -1.0501571 
