29
Energy =
C    -1.9805087    3.1382082    0.5358380 
S    -0.7217091    3.5489802   -0.6827358 
C    -1.4788017    5.0647938   -0.9982044 
H    -1.0258898    5.7102556   -1.7334670 
C    -2.5902447    5.3483852   -0.3048825 
H    -3.1624807    6.2547315   -0.4009285 
C    -2.9693797    4.2940011    0.6186942 
O    -3.9193088    4.2822134    1.3666762 
H    -1.5129999    2.9698011    1.4999814 
H    -2.4821881    2.2224569    0.2440216 
H     2.0556474   -3.7333782    1.9252601 
H     3.0559329   -3.0226246   -1.5974089 
C     2.2338708   -3.6786549   -1.3098818 
C     1.5661530   -4.1553336    1.0471301 
C     0.4795295    0.1137659   -0.9109503 
C    -0.1285650   -0.3192044    1.2132733 
C     1.0679094   -1.1219024   -1.0611631 
C     0.4272705   -1.5784355    1.1837574 
C     1.0579773   -2.0231697    0.0130181 
N    -0.1179361    0.5371470    0.1976407 
N     1.6253535   -3.2546283   -0.0752521 
H    -0.6158880    0.0190346    2.1181101 
H     0.4883554    0.8093915   -1.7396181 
H     1.5257296   -1.3748865   -2.0015676 
H     0.3660954   -2.2004622    2.0596764 
H     2.6301390   -4.6786830   -1.1852212 
H     2.0737283   -5.0767028    0.7900801 
H     0.5374981   -4.3977145    1.3182823 
H     1.5147101   -3.6973853   -2.1301585 
