12
Energy =
S    -0.0043020   -1.4412859    0.0000000 
C    -0.7874391   -0.5488629   -1.2316610 
C    -1.6157098    0.3882386   -0.7099150 
C    -1.6157098    0.3882386    0.7099150 
C    -0.7874391   -0.5488629    1.2316610 
Te    2.5288760    0.5301293    0.0000000 
Cl    4.6332408    1.6099304    0.0000000 
H    -0.5832969   -0.7625386   -2.2639025 
H    -2.2024504    1.0604231   -1.3122325 
H    -2.2024504    1.0604231    1.3122325 
H    -0.5832969   -0.7625386    2.2639025 
H     3.2199779   -0.9732942    0.0000000 
