13
Energy =
Te   -2.1117096   -0.3785013    0.0000000 
Br   -1.9173205    2.1085701    0.0000000 
Br   -4.6307346   -0.4924198    0.0000000 
C     0.8199024   -0.1798354   -0.6022179 
C     0.8199024   -0.1798354    0.6022179 
C     0.8678685   -0.1240961   -2.0509194 
H     1.8919450    0.0076536   -2.3919314 
H     0.4746993   -1.0347128   -2.4944703 
H     0.2754671    0.7121661   -2.4157956 
C     0.8678685   -0.1240961    2.0509194 
H     0.4746993   -1.0347128    2.4944703 
H     1.8919450    0.0076536    2.3919314 
H     0.2754671    0.7121661    2.4157956 
