19
Energy =
N    -0.8058417   -0.1701176    0.3598529 
C    -1.8712347    0.2916488   -0.2820901 
C    -0.9916025   -1.1243302    1.2627992 
C    -3.1537513   -0.1749220   -0.0568628 
H    -1.6897295    1.0718320   -1.0080685 
C    -2.2334751   -1.6561954    1.5596644 
H    -0.1061753   -1.4774696    1.7725987 
C    -3.3371025   -1.1702474    0.8843585 
H    -3.9846829    0.2359218   -0.6070192 
H    -2.3279225   -2.4307552    2.3033377 
Se    1.7657687    1.4929158    0.4202900 
N     3.3756848    2.2788231    0.1873894 
C     3.9922608    1.6949886   -0.7960234 
C     3.3538857    0.6202214   -1.4742124 
C     2.1277021    0.3437771   -0.9709932 
H     4.9782037    2.0536877   -1.0630301 
H     3.8016980    0.0882942   -2.2972983 
H     1.4286147   -0.4087956   -1.2834212 
H    -4.3223005   -1.5592774    1.0887284 
