29
Energy =
N     3.5123604    0.4424930   -2.1385825 
Se    1.8058578    0.1364762   -1.4716367 
C     2.5441085    0.7302103    0.1326290 
H     1.9156974    0.7697743    1.0032037 
C     3.8317022    1.0644270    0.0533340 
H     4.4168868    1.4265782    0.8809511 
C     4.4535851    0.9137214   -1.2663581 
H     3.7651986    0.2790716   -3.0960689 
O     5.6078664    1.1585286   -1.5636724 
H     0.3106234   -0.7604484    1.7472985 
H     0.0692433   -2.0403808    0.5714575 
C    -0.3667124   -1.1323573    0.9811109 
N    -0.4338218   -0.1412488   -0.0904838 
H    -0.3055949    1.4773889    1.2047494 
H    -0.8672351   -1.5491855   -1.5490790 
C    -0.9807732    1.1073435    0.4357661 
C    -1.3100547   -0.6392313   -1.1492154 
H    -0.9894094    1.8364710   -0.3708861 
H    -1.3220098    0.0996505   -1.9478983 
C    -1.7866564   -1.3752344    1.5482899 
H    -1.8359240   -1.1273003    2.6061416 
H    -2.0798452   -2.4170031    1.4404596 
C    -2.3989648    0.8509303    1.0013625 
C    -2.7241534   -0.8904815   -0.5756395 
N    -2.7545167   -0.5510961    0.8395607 
H    -2.4514987    1.0974471    2.0593837 
H    -3.0133792   -1.9333576   -0.6834757 
H    -3.1425607    1.4541924    0.4855975 
H    -3.4700197   -0.2873794   -1.0882995 
