20
Energy =
N     1.4519168   -2.1812792   -0.2523246 
H    -0.4086984   -2.6642702   -1.0337219 
H     1.4660772   -1.9792564   -2.3148862 
H     3.0111596   -1.6854168   -1.5332162 
H    -0.2583082   -2.8719889    0.6976891 
H     1.8210903   -2.4719332    1.7666697 
H     3.2163321   -1.9703828    0.8251700 
C     2.1350370   -2.3322565   -1.5330619 
C     0.2554088   -3.0207696   -0.2494980 
C     2.3394550   -2.6161604    0.8212853 
C     0.6552241   -4.4991321   -0.4622836 
C     2.5308898   -3.8147505   -1.7420452 
C     2.7349338   -4.0976766    0.6039207 
N     2.1012390   -4.6106435   -0.6016424 
H     0.1939193   -4.9079077   -1.3586243 
H     2.0677808   -4.2235242   -2.6375248 
H     3.6081425   -3.9246515   -1.8490322 
H     2.4229021   -4.7156223    1.4431192 
H     3.8122264   -4.2072449    0.4969722 
H     0.3450708   -5.1171322    0.3775032 
