28
Energy =
C    -3.4700929    3.4372967   -0.2687912 
C    -2.2578039    2.8089856   -0.5063370 
C    -2.0799046    1.4779586   -0.1552339 
C    -3.1021686    0.7579280    0.4411090 
C    -4.3056743    1.3946281    0.6727833 
C    -4.4946419    2.7280931    0.3212392 
H    -3.5785846    4.4716224   -0.5562383 
H    -2.9599832   -0.2722992    0.7178720 
H    -5.1118360    0.8457753    1.1347041 
H    -5.4436382    3.2030845    0.5117016 
N    -0.0608688    2.5956327   -1.2068187 
C    -1.1031856    3.4695879   -1.1346894 
O    -1.0633411    4.6192943   -1.5362322 
C     1.1830515    2.9336204   -1.8591531 
H     1.2371923    4.0206180   -1.8569875 
H     1.1666977    2.6094766   -2.9006329 
C     2.3589845    2.3169714   -1.1578518 
C     3.2102703    1.4524801   -1.8267232 
C     2.5862996    2.5775049    0.1881692 
C     4.2742429    0.8576655   -1.1677752 
H     3.0342907    1.2391047   -2.8708763 
C     3.6447368    1.9858656    0.8484548 
H     1.9155657    3.2380301    0.7171836 
C     4.4920018    1.1219413    0.1715300 
H     4.9293804    0.1867791   -1.7012888 
H     3.8109524    2.1963599    1.8933901 
H     5.3183651    0.6591663    0.6879129 
Se   -0.3463009    0.8658092   -0.5603833 
