28
Energy =
C    -0.6901147    0.5531657   -1.1071640 
C    -0.8890540    2.0825396   -1.2386294 
H     0.0898416    0.1929095   -1.7745105 
H    -1.5990519    0.0027325   -1.3392713 
H    -0.2476914    2.4983792   -2.0125837 
H    -1.9172473    2.3249246   -1.4979737 
C     0.9633854    0.8933708    0.5753995 
H     1.2350901    0.6331922    1.5959398 
H     1.7322864    0.4897052   -0.0799131 
C     0.8010651    2.4218176    0.3923017 
H     1.0412292    2.9557751    1.3090065 
H     1.4582338    2.7973424   -0.3890152 
C    -1.4691177    2.2403125    1.0557761 
H    -1.2187608    2.7359989    1.9910581 
H    -2.4857220    2.5250335    0.7940267 
C    -1.3319058    0.7051216    1.1810376 
H    -1.0511514    0.4043782    2.1886943 
H    -2.2602033    0.1941656    0.9328723 
N    -0.2996358    0.2297673    0.2627563 
N    -0.5714703    2.7369446    0.0225690 
Te   -0.2858387   -2.5468830    0.8077076 
C     1.1472548   -2.5179549   -0.6489085 
C     1.6003707   -3.7690412   -0.8627901 
C     0.9999316   -4.7945624   -0.0540942 
N     0.0885520   -4.5227115    0.8161704 
H     2.3637995   -4.0022115   -1.5900081 
H     1.3124309   -5.8293090   -0.1684625 
H     1.4834938   -1.6349031   -1.1619916 
