26
Energy =
S    -0.2422743    0.0665000    0.0593702 
C     1.3740771    3.6584973    0.3017469 
H     0.9584111    4.6481248    0.4042617 
N    -1.4058638    1.3217364    0.2187574 
C     0.5140308    2.5711424    0.2447417 
C     2.7307892    3.4395028    0.2253804 
H     3.4163700    4.2701830    0.2688076 
C    -2.7508397    0.9899648    0.2462957 
C     1.0096214    1.2741471    0.1114204 
C    -4.9856029    2.0013351    0.4293909 
H    -5.3854540    1.0022871    0.3596304 
N    -1.6697281    3.6500127    0.4311151 
O    -3.0970743   -0.1707279    0.1593680 
C    -5.2325979    4.3733078    0.6455031 
H    -5.8744953    5.2347246    0.7470009 
C     2.3778509    1.0540565    0.0343863 
H     2.7641224    0.0558288   -0.0680940 
C    -3.0220499    3.4388818    0.4706790 
C    -0.9262258    2.6042700    0.3091143 
C    -5.7984570    3.0980499    0.5590295 
H    -6.8695170    2.9800163    0.5944021 
C     3.2229251    2.1424996    0.0924945 
H     4.2883114    1.9827634    0.0338576 
C    -3.8731412    4.5442417    0.6029175 
H    -3.4245949    5.5222142    0.6697201 
C    -3.6003922    2.1584392    0.3842344 
