18
Energy =
Se    2.4240586    0.7233703    0.0000000 
Se   -1.2544336   -0.1693978    0.0000000 
C     2.3216863   -0.5656563   -1.4488931 
C     2.3216863   -0.5656563    1.4488931 
H     2.3607726   -0.0069915   -2.3769280 
H     3.1637853   -1.2464307   -1.4000511 
H     1.3835622   -1.1058980   -1.3928956 
H     2.3607726   -0.0069915    2.3769280 
H     1.3835622   -1.1058980    1.3928956 
H     3.1637853   -1.2464307    1.4000511 
C    -1.4859799    1.7574323    0.0000000 
C    -3.1457494   -0.6210440    0.0000000 
H    -0.4892619    2.1819777    0.0000000 
H    -2.0202636    2.0686430   -0.8904220 
H    -2.0202636    2.0686430    0.8904220 
H    -3.2178674   -1.7026671    0.0000000 
H    -3.6249259   -0.2285021    0.8897098 
H    -3.6249259   -0.2285021   -0.8897098 
