46
Energy =
S    -0.2402347   -0.9181478   -0.2756030 
O    -1.6097543   -3.6977247   -2.4921290 
N    -1.3267950   -2.1472767   -0.8064541 
C     0.7926075   -1.2350444   -1.6278512 
C     1.9931555   -0.6104826   -1.9377357 
H     2.3878588    0.1637165   -1.3046732 
C     0.2910102   -2.2425720   -2.4392778 
C    -0.9733735   -2.8055064   -1.9719320 
C     2.6631872   -1.0161809   -3.0730543 
H     3.5975130   -0.5403195   -3.3278898 
C    -2.4791592   -2.3988753   -0.0385527 
C     2.1633333   -2.0265430   -3.8931875 
H     2.7117714   -2.3220425   -4.7729731 
C     0.9745162   -2.6450663   -3.5759382 
H     0.5567267   -3.4338053   -4.1817616 
C    -2.4542254   -2.1604103    1.3308734 
H    -1.5435776   -1.8240312    1.8006100 
C    -3.6490997   -2.8574857   -0.6343293 
H    -3.6687787   -3.0498176   -1.6909122 
C    -4.7695198   -3.0751929    0.1444054 
H    -5.6714541   -3.4335233   -0.3265921 
C    -3.5862409   -2.3718658    2.0946355 
H    -3.5508291   -2.1830435    3.1560875 
C    -4.7496361   -2.8334377    1.5070433 
H    -5.6311466   -3.0042022    2.1040745 
N     1.1946550    1.3878074    0.6520749 
H     0.3540988    0.6048201    2.3823625 
H     2.6932874    0.8126323    1.9522543 
H     3.2558205    1.2964103    0.3665855 
H    -0.7493943    1.4781555    1.3408475 
H    -0.0303016    2.2091916   -0.8071687 
H     1.6892675    2.4083335   -1.0778032 
C     2.5534437    1.5449429    1.1601750 
C     0.2532731    1.4939050    1.7628542 
C     0.9119971    2.4434078   -0.3164873 
C     0.4947350    2.7794931    2.5772356 
C     2.7917907    2.9787568    1.6763740 
C     0.8689147    3.8261741    0.3640634 
C     1.4355109    3.6708730    1.7722657 
H     0.9423475    2.5500014    3.5430442 
H     3.2819154    2.9621656    2.6476030 
H     3.4404985    3.5323739    0.9992663 
H    -0.1520718    4.2006284    0.4174162 
H     1.4474806    4.5532272   -0.2020623 
H    -0.4439408    3.2934116    2.7732328 
H     1.5388169    4.6421695    2.2489837 
