21
Energy =
C     0.1194312    0.8988367   -1.9399941 
C    -0.0558770   -1.3634440   -1.8727473 
C     0.0654145   -1.4678712   -3.2469205 
C     0.2215325   -0.3093432   -3.9840943 
C     0.2494397    0.9008491   -3.3173805 
H     0.1372009    1.8268179   -1.3852375 
H    -0.1779931   -2.2507590   -1.2668678 
H     0.0378956   -2.4351070   -3.7220484 
H     0.3196986   -0.3490692   -5.0576866 
H     0.3693235    1.8307243   -3.8494324 
N    -0.0307157   -0.2071395   -1.2228053 
H     0.8949566   -0.7073150    1.5556651 
S    -0.4405943    1.2765001    1.6386469 
C    -0.1480118    0.7316950    4.1851049 
C     0.0907738   -0.5539487    3.5529699 
C    -0.0354191   -0.4303847    2.0389392 
C    -0.4218936    1.7067512    3.3081305 
O     0.3545018   -1.6003181    4.0967891 
H    -0.1040092    0.8581598    5.2528417 
H    -0.6304459    2.7325670    3.5655901 
H    -0.8152089   -1.0882014    1.6705375 
