29
Energy =
C    -0.7673931    0.7991288   -1.2309989 
C    -0.9042574    2.3383968   -1.3331401 
H    -0.0082955    0.4212811   -1.9134429 
H    -1.7014943    0.2942139   -1.4676550 
H    -0.2479373    2.7440040   -2.1003268 
H    -1.9224458    2.6286090   -1.5839201 
C     0.9077284    1.0409366    0.4408668 
H     1.1796300    0.7464406    1.4525127 
H     1.6550530    0.6222727   -0.2305504 
C     0.8049785    2.5784010    0.2957771 
H     1.0676651    3.0818939    1.2238125 
H     1.4726746    2.9484994   -0.4795204 
C    -1.4678626    2.4697779    0.9678295 
H    -1.1956589    2.9386210    1.9111438 
H    -2.4743022    2.7973395    0.7156980 
C    -1.3849728    0.9275848    1.0613534 
H    -1.1064941    0.5987369    2.0612858 
H    -2.3349239    0.4573739    0.8142757 
N    -0.3807838    0.4328221    0.1264238 
N    -0.5567112    2.9542500   -0.0600354 
Te   -0.2363384   -2.4681469    0.9577372 
C     1.0257373   -2.4396268   -0.6505381 
C     1.6138718   -3.6374465   -0.8533796 
C     1.2832887   -4.6976194    0.0457084 
C     0.4024889   -4.4224738    1.0326693 
H     2.3089619   -3.7941163   -1.6655140 
H     1.7257064   -5.6767640   -0.0677319 
H     0.0705383   -5.1284557    1.7738909 
H     1.1715485   -1.5559343   -1.2442314 
