20
Energy =
N    -0.1857193   -0.6201436   -0.1933569 
H    -1.8841348   -0.3331560    0.9628661 
H    -1.8803926   -1.0615864   -1.3029902 
H    -0.3559823   -1.3476258   -2.1262012 
H    -0.3602884   -0.0701755    1.7986781 
H     1.6855885   -0.4487601    0.6833801 
H     1.6952325   -0.9740347   -0.9919850 
C    -0.8736557   -1.4539280   -1.1741644 
C    -0.8736631   -0.7166978    1.0899588 
C     1.1864017   -1.0934928   -0.0377292 
C    -0.8742863   -2.1902415    1.5664677 
C    -0.8854484   -2.9231846   -0.6899974 
C     1.1752193   -2.5685813    0.4310784 
N    -0.1969888   -3.0297666    0.5885425 
H    -1.8878671   -2.5637752    1.6943811 
H    -1.9021646   -3.2880980   -0.5613305 
H    -0.3880448   -3.5782752   -1.4019449 
H     1.6864407   -2.6843675    1.3842363 
H     1.6714709   -3.2151858   -0.2893394 
H    -0.3616521   -2.2959937    2.5200288 
