26
Energy =
Te   -0.2631655   -1.3426748    0.0775973 
C    -2.7458537    0.2749334    0.3601532 
C    -2.7090412    2.7337409    0.2644951 
C    -0.7633275    1.5974547    0.0347602 
C    -3.4473734    1.5446098    0.4117373 
C     0.6738823    1.4479881   -0.1592799 
C     1.5099548    2.5463127   -0.3166826 
C    -3.3983536    3.9534191    0.3158916 
C     1.1957551    0.1514513   -0.1835613 
C     2.8623478    2.3607279   -0.4981664 
C    -4.8274703    1.5846809    0.6038033 
C    -4.7560319    3.9766473    0.5054544 
C     2.5592609   -0.0261325   -0.3677902 
C     3.3822195    1.0734369   -0.5233395 
C    -5.4807205    2.7901670    0.6510537 
N    -1.3537742    2.7486072    0.0745756 
N    -1.3954056    0.4044881    0.1666952 
O    -3.2358034   -0.8397157    0.4698408 
H     1.0668568    3.5291511   -0.2916064 
H    -2.8288582    4.8618725    0.2026982 
H    -5.3522431    0.6487561    0.7120770 
H     3.5149133    3.2103552   -0.6206547 
H     2.9867064   -1.0131457   -0.3921870 
H    -5.2723155    4.9236505    0.5427293 
H     4.4414825    0.9241549   -0.6660332 
H    -6.5481699    2.8257115    0.7993361 
