20
Energy =
C    -0.7731783    0.9816267   -1.3768958 
C    -0.8142745    2.5276499   -1.2905474 
H     0.0018526    0.6441938   -2.0640663 
H    -1.7211067    0.5746904   -1.7235749 
H    -0.1080118    2.9831303   -1.9819802 
H    -1.8039769    2.9112271   -1.5307457 
C     0.8217674    0.8925681    0.3804482 
H     1.0134803    0.4697017    1.3646985 
H     1.5759474    0.4921811   -0.2954653 
C     0.8396343    2.4397818    0.4079933 
H     1.1060123    2.8160141    1.3937483 
H     1.5591778    2.8418870   -0.3026300 
C    -1.4609708    2.4188562    0.9901718 
H    -1.1876708    2.7401207    1.9933527 
H    -2.4293542    2.8572243    0.7568854 
C    -1.4990914    0.8747868    0.8823512 
H    -1.3033467    0.4001617    1.8424760 
H    -2.4675739    0.5221162    0.5329383 
N    -0.4859412    0.4230825   -0.0625166 
N    -0.4773528    2.9571253    0.0596406 
