30
Energy =
C    -0.6779837    0.6660777   -1.2336213 
C    -0.9851214    2.1727103   -1.3539009 
H     0.1769431    0.3941035   -1.8497707 
H    -1.5182619    0.0596849   -1.5637768 
H    -0.4561729    2.6085773   -2.1989702 
H    -2.0482008    2.3399755   -1.5202314 
C     0.9049470    0.9241420    0.5273818 
H     1.0616579    0.7163956    1.5838017 
H     1.7076972    0.4291519   -0.0153116 
C     0.8859119    2.4404990    0.2493702 
H     1.2655425    2.9949505    1.1051219 
H     1.5209084    2.6881019   -0.5999572 
C    -1.4468455    2.3245172    1.0751391 
H    -1.0785381    2.6893640    2.0327156 
H    -2.4627453    2.6965380    0.9595236 
C    -1.4193570    0.7843413    1.0257170 
H    -1.2588238    0.3580521    2.0144958 
H    -2.3600548    0.3845602    0.6524890 
N    -0.3603009    0.3061134    0.1438538 
C    -0.5557735    2.8412223   -0.0508565 
H    -0.6391624    3.9217297   -0.1343910 
Te   -0.2066062   -2.5819472    0.9397702 
C     1.0726644   -2.5355608   -0.6547918 
C     1.6635134   -3.7305341   -0.8659466 
C     1.3250872   -4.8012527    0.0178345 
C     0.4340127   -4.5376157    0.9986818 
H     2.3667679   -3.8773794   -1.6729234 
H     1.7697063   -5.7786269   -0.1026591 
H     0.0960967   -5.2529251    1.7283195 
H     1.2224915   -1.6449663   -1.2371068 
