12
Energy =
O     0.1359229    0.0531178    0.0000000 
C    -0.6676916    0.0194954   -1.0902641 
C    -1.9601201   -0.0368189   -0.7130573 
C    -1.9601201   -0.0368189    0.7130573 
C    -0.6676916    0.0194954    1.0902641 
Se    2.9938492    0.5551502    0.0000000 
Br    5.3145409    0.3776335    0.0000000 
H    -0.1714944    0.0439755   -2.0399468 
H    -2.8112740   -0.0732313   -1.3652506 
H    -2.8112740   -0.0732313    1.3652506 
H    -0.1714944    0.0439755    2.0399468 
H     2.7768471   -0.8927430    0.0000000 
