21
Energy =
C    -0.7085314    0.8317457   -1.3778761 
C    -0.8961561    2.3635520   -1.3398193 
H     0.1375510    0.5597147   -2.0075636 
H    -1.5868970    0.3369528   -1.7867387 
H    -0.2870995    2.8488892   -2.1000496 
H    -1.9322661    2.6331096   -1.5392379 
C     0.8289530    0.7875680    0.4370117 
H     0.9483039    0.4353135    1.4596194 
H     1.6177923    0.3216937   -0.1511265 
C     0.9044244    2.3266644    0.3622671 
H     1.2645650    2.7433657    1.3008848 
H     1.5962790    2.6460068   -0.4158626 
C    -1.4701334    2.2612764    1.0698337 
H    -1.1390747    2.5072219    2.0777362 
H    -2.4593764    2.6968655    0.9428139 
C    -1.5104900    0.7328301    0.8593445 
H    -1.3916205    0.2007193    1.8013611 
H    -2.4611156    0.4209071    0.4315352 
N    -0.4560693    0.2969918   -0.0466407 
C    -0.4960463    2.8468816    0.0512567 
H    -0.5138712    3.9331127    0.0927113 
