16
Energy =
Te    1.8631608    0.6936015    0.0000000 
Te   -1.5030613   -0.1890848    0.0000000 
C     1.9749234   -0.7592808   -1.5610317 
C     1.9749234   -0.7592808    1.5610317 
H     1.9094878   -0.2303043   -2.5042779 
H     2.9174818   -1.2877254   -1.4967058 
H     1.1381548   -1.4419219   -1.4691140 
H     1.9094878   -0.2303043    2.5042779 
H     1.1381548   -1.4419219    1.4691140 
H     2.9174818   -1.2877254    1.4967058 
C    -3.5201933   -0.6694134    0.0000000 
C    -1.9771512    1.8959621    0.0000000 
H    -1.0258713    2.4131674    0.0000000 
H    -2.5415575    2.1284253    0.8923375 
H    -2.5415575    2.1284253   -0.8923375 
N    -4.6338640   -0.9626185    0.0000000 
