28
Energy =
C    -3.5791100    0.5038719   -0.2730960 
C    -2.3005538    0.0165681   -0.4960889 
C    -2.0357099   -1.3480530   -0.4043808 
C    -3.0589361   -2.2314388   -0.0849742 
C    -4.3274051   -1.7321499    0.1350008 
C    -4.5974489   -0.3693796    0.0436006 
H    -3.7365115    1.5686590   -0.3565023 
H    -2.8449793   -3.2852225   -0.0175998 
H    -5.1237685   -2.4189703    0.3823097 
H    -5.5972291   -0.0020732    0.2196906 
N    -0.0590321    0.1405699   -0.9772738 
C    -1.1676146    0.8896677   -0.8404453 
O    -1.2347013    2.1107990   -0.9815997 
C     1.1867292    0.7338502   -1.3494564 
H     0.9667386    1.7507576   -1.6779877 
H     1.6124445    0.1967316   -2.1994966 
C     2.2169118    0.7865968   -0.2483103 
C     3.5416671    1.0618468   -0.5613258 
C     1.8753545    0.5887758    1.0796022 
C     4.5032897    1.1485767    0.4280282 
H     3.8209287    1.2060676   -1.5959450 
C     2.8361794    0.6714381    2.0730488 
H     0.8522196    0.3542736    1.3260812 
C     4.1523421    0.9535565    1.7537456 
H     5.5285011    1.3619677    0.1646630 
H     2.5537869    0.5065007    3.1017506 
H     4.9008023    1.0133129    2.5291679 
Se   -0.2299513   -1.8045081   -0.7445991 
