21
Energy =
H     0.2652412   -0.5785259    1.8555097 
H     0.3480072   -1.8897317    0.6962292 
C    -0.2542295   -1.0436331    1.0189822 
N    -0.2989994   -0.0712205   -0.0684889 
H    -0.2090729    1.6421955    1.1061153 
H    -0.6789192   -1.5732349   -1.4322173 
C    -0.9006082    1.1686476    0.4112963 
C    -1.1011760   -0.6072695   -1.1633497 
H    -1.0016192    1.8343222   -0.4427708 
H    -0.9808483    0.0466167   -2.0246626 
C    -1.6749388   -1.4817648    1.4283591 
H    -1.7916874   -1.4518772    2.5095562 
H    -1.8702167   -2.5053497    1.1130961 
C    -2.2644746    0.8997246    1.0790599 
C    -2.5811977   -0.7364843   -0.7538590 
C    -2.6665357   -0.5364221    0.7564829 
H    -2.2016939    1.0311051    2.1580644 
H    -2.9746928   -1.7118093   -1.0320385 
H    -3.0157290    1.5971424    0.7148260 
H    -3.1909197    0.0108698   -1.2589405 
H    -3.6756063   -0.7346039    1.1081826 
