30
Energy =
N     3.7700891    0.5060202   -2.1603179 
Te    1.8190591    0.1105033   -1.6192845 
C     2.6379461    0.7317179    0.1693609 
H     2.0388661    0.7757560    1.0623413 
C     3.9262667    1.0549387    0.1010140 
H     4.4989241    1.3970403    0.9485686 
C     4.6210524    0.9426465   -1.1955646 
H     4.1592897    0.3936719   -3.0800672 
O     5.7992592    1.2075887   -1.3702552 
H     0.3252244   -0.5697005    1.6773380 
H     0.3365589   -1.9358187    0.5822793 
C    -0.2458426   -1.0765635    0.9037403 
N    -0.3668297   -0.1530798   -0.2301147 
H    -0.1114044    1.6413942    0.7993621 
H    -0.9516977   -1.7285901   -1.4347393 
C    -0.8928548    1.1327451    0.2411811 
C    -1.2966863   -0.7214062   -1.2123582 
H    -1.1005408    1.7361774   -0.6388144 
H    -1.2184621   -0.1404790   -2.1293515 
C    -1.6370545   -1.4816066    1.4205777 
H    -1.6581018   -1.4637690    2.5076028 
H    -1.8841396   -2.4955407    1.1109779 
C    -2.1548440    0.9180477    1.0943495 
C    -2.7323617   -0.7242487   -0.6638068 
C    -2.6542661   -0.5017571    0.8434407 
H    -1.9338220    1.0499829    2.1520922 
H    -3.2231045   -1.6678290   -0.8897797 
H    -2.9182630    1.6469131    0.8328973 
H    -3.3241201    0.0648767   -1.1241650 
H    -3.6281401   -0.6496315    1.3014955 
