13
Energy =
Se   -2.1172967   -0.2385994    0.0000000 
Br   -1.9337969    2.0704740    0.0000000 
Br   -4.4405697   -0.4823732    0.0000000 
C     0.8425481   -0.1746825   -0.6010221 
C     0.8425481   -0.1746825    0.6010221 
C     0.8501517   -0.1353725   -2.0502107 
H     1.8562049    0.0348942   -2.4259110 
H     0.4846412   -1.0685836   -2.4708710 
H     0.2122858    0.6689937   -2.4109624 
C     0.8501517   -0.1353725    2.0502107 
H     0.4846412   -1.0685836    2.4708710 
H     1.8562049    0.0348942    2.4259110 
H     0.2122858    0.6689937    2.4109624 
