16
Energy =
S     1.7235438    0.4833156    0.0000000 
Se   -1.5425438   -0.1838361    0.0000000 
C     1.8554651   -0.6727421   -1.3681123 
C     1.8554651   -0.6727421    1.3681123 
H     1.7939750   -0.0977472   -2.2857583 
H     2.8083260   -1.1923282   -1.3387706 
H     1.0397501   -1.3902885   -1.3473741 
H     1.7939750   -0.0977472    2.2857583 
H     1.0397501   -1.3902885    1.3473741 
H     2.8083260   -1.1923282    1.3387706 
C    -3.3301682   -0.6276233    0.0000000 
C    -1.8312779    1.7455472    0.0000000 
H    -0.8350572    2.1700487    0.0000000 
H    -2.3705537    2.0292267    0.8931881 
H    -2.3705537    2.0292267   -0.8931881 
N    -4.4384218   -0.9396935    0.0000000 
