45
Energy =
Se   -0.3081983   -0.5482744   -0.2970318 
O    -1.1390130   -3.2669047   -3.0548799 
N    -1.2786439   -1.8775961   -1.2274457 
C     1.0300441   -0.8348191   -1.5902042 
C     2.2623342   -0.2088859   -1.6811511 
H     2.5552433    0.5380698   -0.9655083 
C     0.6589712   -1.7992988   -2.5140409 
C    -0.6659796   -2.4099374   -2.3343292 
C     3.1100577   -0.5643337   -2.7121371 
H     4.0717910   -0.0816711   -2.7930481 
C    -2.5646087   -2.2176251   -0.7765115 
C     2.7449992   -1.5317913   -3.6427795 
H     3.4234549   -1.7943611   -4.4384316 
C     1.5178049   -2.1513565   -3.5433544 
H     1.1964007   -2.9078666   -4.2422181 
C    -2.8466475   -2.1626959    0.5841579 
H    -2.0625954   -1.9097137    1.2811077 
C    -3.5716022   -2.5789295   -1.6664601 
H    -3.3564720   -2.6328987   -2.7177232 
C    -4.8322972   -2.8791012   -1.1876935 
H    -5.6042954   -3.1602508   -1.8869370 
C    -4.1148438   -2.4547099    1.0491222 
H    -4.3149796   -2.4081562    2.1081787 
C    -5.1151430   -2.8172496    0.1660938 
H    -6.1035832   -3.0510805    0.5281034 
N     1.0178497    1.4534254    1.0509833 
H     2.0741660    0.1919132    2.3118326 
H    -0.2386935    0.6439552    2.4893453 
H     3.0484495    1.0008618    1.0977964 
H    -0.9923645    1.8102930    1.4159723 
C     2.2317474    1.1396756    1.8023952 
C    -0.0930665    1.6007761    1.9915399 
H     2.0155725    2.5932435   -0.3733017 
H     0.2948911    2.9077827   -0.2373450 
C     1.1992820    2.7149867    0.3349276 
C     2.5383477    2.2861327    2.7969977 
C     0.2196968    2.7299872    2.9997158 
C     1.4968551    3.8486828    1.3463636 
H     2.5625282    1.9218793    3.8216384 
N     1.5170200    3.3183511    2.7017042 
H     0.2418395    2.3525696    4.0196161 
H     3.5038524    2.7409578    2.5867620 
H    -0.5312924    3.5155374    2.9558462 
H     2.4605509    4.3115962    1.1457385 
H     0.7405698    4.6288309    1.2965933 
