21
Energy =
C    -0.5930400    0.5650268   -1.2359139 
C    -0.9166842    2.0734201   -1.2540514 
H     0.2792396    0.3493312   -1.8512834 
H    -1.4190786   -0.0232322   -1.6291412 
H    -0.3643345    2.5785011   -2.0438451 
H    -1.9753913    2.2404128   -1.4460441 
C     0.9399041    0.7164598    0.5790061 
H     1.0791521    0.4258961    1.6181324 
H     1.7650549    0.2848018    0.0149938 
C     0.8964414    2.2504195    0.4261269 
H     1.2345414    2.7394488    1.3373561 
H     1.5535119    2.5804806   -0.3771117 
C    -1.4587127    2.0286322    1.1634207 
H    -1.1326712    2.3316566    2.1571462 
H    -2.4786803    2.3862288    1.0382887 
C    -1.3921184    0.4962454    1.0051154 
H    -1.2436896    0.0041416    1.9643376 
H    -2.3144276    0.1035163    0.5822921 
N    -0.3022620    0.1065431    0.1172975 
C    -0.5431683    2.6461312    0.1101931 
H    -0.6460064    3.7282072    0.1066704 
