21
Energy =
C     0.4156753    1.0720774   -2.1355379 
C    -0.7799968   -0.8095482   -1.6804616 
C    -0.4506606   -1.3770726   -2.8973964 
C     0.3562128   -0.6601636   -3.7609777 
C     0.7991333    0.5905715   -3.3739207 
H     0.7423596    2.0446768   -1.7954848 
H    -1.4100568   -1.3361394   -0.9762637 
H    -0.8190564   -2.3561754   -3.1567622 
H     0.6354836   -1.0695119   -4.7190528 
H     1.4304871    1.1844324   -4.0145232 
N    -0.3579811    0.3896803   -1.3021238 
H     1.3031029    0.1761840    1.3091825 
Te   -1.1669930    1.2490830    1.4807809 
C    -0.2372511    0.4061701    4.1313444 
C     0.6157693   -0.3940238    3.2579127 
C     0.3894468   -0.1812106    1.7699618 
C    -1.1271782    1.2261737    3.5671596 
O     1.4503451   -1.1788559    3.6486929 
H    -0.1138985    0.2982409    5.1986391 
H    -1.7945095    1.8481809    4.1434567 
H     0.1195661   -1.1227696    1.3053743 
