28
Energy =
C    -3.6017265    0.5295924   -0.2509118 
C    -2.3088165    0.0922443   -0.4977506 
C    -1.9766069   -1.2606979   -0.4182020 
C    -2.9562253   -2.1934888   -0.0852938 
C    -4.2361008   -1.7435299    0.1575125 
C    -4.5704987   -0.3907286    0.0784324 
H    -3.8105529    1.5860829   -0.3247372 
H    -2.6891906   -3.2363392   -0.0298659 
H    -4.9986943   -2.4636729    0.4157400 
H    -5.5829567   -0.0720217    0.2747330 
N    -0.1008227    0.1577417   -1.0039241 
C    -1.1884858    0.9556727   -0.8568166 
O    -1.1979232    2.1737940   -1.0080413 
C     1.1773143    0.6815916   -1.3756650 
H     0.9918708    1.6897019   -1.7463003 
H     1.5875789    0.0921246   -2.1964874 
C     2.1888954    0.7418805   -0.2581481 
C     3.5193486    1.0011749   -0.5588885 
C     1.8267801    0.5674833    1.0670318 
C     4.4680225    1.0953001    0.4419023 
H     3.8138539    1.1266370   -1.5916046 
C     2.7751123    0.6579195    2.0717445 
H     0.7994866    0.3454114    1.3072683 
C     4.0973364    0.9242464    1.7654510 
H     5.4985202    1.2947846    0.1890711 
H     2.4774746    0.5110750    3.0986967 
H     4.8358559    0.9893327    2.5497847 
S    -0.3021940   -1.5786604   -0.7675565 
