12
Energy =
S     0.2495762   -1.2149892    0.0000000 
C    -0.6708803   -0.4697150   -1.2311870 
C    -1.6504931    0.3087326   -0.7096603 
C    -1.6504931    0.3087326    0.7096603 
C    -0.6708803   -0.4697150    1.2311870 
S     2.6707451    0.5422006    0.0000000 
F     4.1369267    1.2619532    0.0000000 
H    -0.4347085   -0.6462541   -2.2635737 
H    -2.3470728    0.8664581   -1.3120156 
H    -2.3470728    0.8664581    1.3120156 
H    -0.4347085   -0.6462541    2.2635737 
H     3.1490615   -0.7076079    0.0000000 
