21
Energy =
N    -0.1854964   -0.4998813   -0.2077449 
H    -1.9078344   -0.1938599    0.8962140 
H    -1.8481173   -0.9069134   -1.3687069 
H    -0.3077480   -1.2081813   -2.1450692 
H    -0.4100583    0.0770170    1.7664703 
H     1.6596194   -0.3199797    0.7102449 
H     1.7116451   -0.8262929   -0.9655625 
C    -0.8546055   -1.3212021   -1.2107173 
C    -0.9050312   -0.5833501    1.0579454 
C     1.1844831   -0.9667377   -0.0246036 
C    -0.9417550   -2.0341150    1.5849478 
C    -0.9215964   -2.7992294   -0.7741226 
C     1.2169965   -2.4415374    0.4293952 
C    -0.2228054   -2.9237712    0.5757201 
H    -1.9675365   -2.3727990    1.7156448 
H    -1.9542162   -3.1322940   -0.6902177 
H    -0.4367384   -3.4423699   -1.5057753 
H     1.7428518   -2.5441691    1.3764361 
H     1.7426811   -3.0583482   -0.2968978 
H    -0.4549048   -2.1053415    2.5555050 
H    -0.2384953   -3.9575733    0.9114537 
