26
Energy =
Se   -0.3775053   -0.0520966    0.0700191 
C     1.2869799    3.6766442    0.3154599 
H     0.8524598    4.6590137    0.4107929 
N    -1.5585958    1.4103191    0.2374635 
C     0.4388666    2.5795983    0.2569166 
C     2.6490074    3.4830187    0.2511282 
H     3.3188700    4.3265107    0.2954244 
C    -2.9136842    1.1629299    0.2662553 
C     0.9563102    1.2907690    0.1332509 
C    -5.0928010    2.3032050    0.4364177 
H    -5.5514364    1.3291708    0.3744473 
N    -1.6847353    3.7482276    0.4292252 
O    -3.3319167    0.0221966    0.1889055 
C    -5.1983059    4.6876900    0.6322980 
H    -5.7876882    5.5867841    0.7259364 
C     2.3267968    1.0977618    0.0706499 
H     2.7353724    0.1077563   -0.0212655 
C    -3.0474792    3.6208569    0.4689503 
C    -1.0071158    2.6545908    0.3164759 
C    -5.8391709    3.4479496    0.5553346 
H    -6.9155177    3.3945504    0.5895812 
C     3.1620909    2.1957842    0.1296873 
H     4.2299272    2.0489076    0.0810748 
C    -3.8307878    4.7766302    0.5902844 
H    -3.3249353    5.7268801    0.6482833 
C    -3.7012854    2.3771474    0.3925654 
