18
Energy =
O     1.8946254    0.2046744    0.0000000 
Te   -1.3012730   -0.5341099    0.0000000 
C     2.2811330   -0.4764500   -1.1649590 
C     2.2811330   -0.4764500    1.1649590 
H     1.9331761    0.1015965   -2.0138846 
H     3.3677673   -0.5797477   -1.2185248 
H     1.8304229   -1.4712107   -1.2072918 
H     1.9331761    0.1015965    2.0138846 
H     1.8304229   -1.4712107    1.2072918 
H     3.3677673   -0.5797477    1.2185248 
C    -1.1730976    1.5972830    0.0000000 
C    -3.4427394   -0.5477731    0.0000000 
H    -0.1169338    1.8372344    0.0000000 
H    -1.6472156    1.9914730   -0.8904151 
H    -1.6472156    1.9914730    0.8904151 
H    -3.7665068   -1.5823496    0.0000000 
H    -3.8123210   -0.0531407    0.8899978 
H    -3.8123210   -0.0531407   -0.8899978 
