16
Energy =
Se    1.8366723    0.5941881    0.0000000 
Se   -1.5418947   -0.1452222    0.0000000 
C     1.8807661   -0.6971495   -1.4496809 
C     1.8807661   -0.6971495    1.4496809 
H     1.8554976   -0.1382170   -2.3777247 
H     2.7948201   -1.2767745   -1.3987270 
H     1.0128002   -1.3448005   -1.3944067 
H     1.8554976   -0.1382170    2.3777247 
H     1.0128002   -1.3448005    1.3944067 
H     2.7948201   -1.2767745    1.3987270 
C    -3.3163762   -0.6398676    0.0000000 
C    -1.8855507    1.7750538    0.0000000 
H    -0.9012526    2.2267882    0.0000000 
H    -2.4322165    2.0436961    0.8933132 
H    -2.4322165    2.0436961   -0.8933132 
N    -4.4149332   -0.9844497    0.0000000 
