18
Energy =
Te    2.4724178    0.8321750    0.0000000 
Te   -1.2050171   -0.1908993    0.0000000 
C     2.4242147   -0.6277320   -1.5593085 
C     2.4242147   -0.6277320    1.5593085 
H     2.4265914   -0.0971594   -2.5042013 
H     3.2993605   -1.2616924   -1.4906452 
H     1.5127868   -1.2070841   -1.4714591 
H     2.4265914   -0.0971594    2.5042013 
H     1.5127868   -1.2070841    1.4714591 
H     3.2993605   -1.2616924    1.4906452 
C    -1.5622261    1.9144639    0.0000000 
C    -3.2972931   -0.6668227    0.0000000 
H    -0.5899164    2.3917658    0.0000000 
H    -2.1129667    2.1897544   -0.8909614 
H    -2.1129667    2.1897544    0.8909614 
H    -3.3897356   -1.7469113    0.0000000 
H    -3.7641014   -0.2629722    0.8901859 
H    -3.7641014   -0.2629722   -0.8901859 
