12
Energy =
S     0.1914510   -1.2213684    0.0000000 
C    -0.7226868   -0.4621956   -1.2334894 
C    -1.6912438    0.3255590   -0.7110340 
C    -1.6912438    0.3255590    0.7110340 
C    -0.7226868   -0.4621956    1.2334894 
Te    2.6557440    0.5819268    0.0000000 
F     4.4322429    1.3591039    0.0000000 
H    -0.4846658   -0.6408146   -2.2650847 
H    -2.3806451    0.8932365   -1.3121967 
H    -2.3806451    0.8932365    1.3121967 
H    -0.4846658   -0.6408146    2.2650847 
H     3.2790450   -0.9512330    0.0000000 
