12
Energy =
S    -0.0922592   -1.5260354    0.0000000 
C    -0.8135334   -0.5834567   -1.2309708 
C    -1.5755565    0.4093766   -0.7094960 
C    -1.5755565    0.4093766    0.7094960 
C    -0.8135334   -0.5834567    1.2309708 
Te    2.4712546    0.5146233    0.0000000 
Br    4.6845965    1.7136740    0.0000000 
H    -0.6250494   -0.8102025   -2.2634149 
H    -2.1143319    1.1202361   -1.3122103 
H    -2.1143319    1.1202361    1.3122103 
H    -0.6250494   -0.8102025    2.2634149 
H     3.1933505   -0.9741690    0.0000000 
