30
Energy =
C     0.3052679    2.5566231    0.4082030 
Te   -0.1116393    1.9592319   -1.5951377 
C     0.1939330    4.0026891   -1.9169768 
H     0.1055931    4.4321778   -2.9031088 
C     0.5097104    4.7271280   -0.8409621 
H     0.7034269    5.7891924   -0.8668005 
C     0.6077078    4.0458516    0.4463914 
O     0.9003462    4.5890111    1.4876533 
H     1.1522582    2.0020003    0.7963937 
H    -0.5566695    2.3531650    1.0337658 
N    -0.1857193   -0.6201436   -0.1933569 
H    -1.8841348   -0.3331560    0.9628661 
H    -1.8803926   -1.0615864   -1.3029902 
H    -0.3559823   -1.3476258   -2.1262012 
H    -0.3602884   -0.0701755    1.7986781 
H     1.6855885   -0.4487601    0.6833801 
H     1.6952325   -0.9740347   -0.9919850 
C    -0.8736557   -1.4539280   -1.1741644 
C    -0.8736631   -0.7166978    1.0899588 
C     1.1864017   -1.0934928   -0.0377292 
C    -0.8742863   -2.1902415    1.5664677 
C    -0.8854484   -2.9231846   -0.6899974 
C     1.1752193   -2.5685813    0.4310784 
N    -0.1969888   -3.0297666    0.5885425 
H    -1.8878671   -2.5637752    1.6943811 
H    -1.9021646   -3.2880980   -0.5613305 
H    -0.3880448   -3.5782752   -1.4019449 
H     1.6864407   -2.6843675    1.3842363 
H     1.6714709   -3.2151858   -0.2893394 
H    -0.3616521   -2.2959937    2.5200288 
