27
Energy =
S     1.5687038   -2.2047396    0.0002691 
C     2.2855877    1.7092886    0.0002562 
H     1.6384249    2.5723034    0.0002145 
N     0.0981660   -1.1642895    0.0006033 
C     1.7064593    0.4463437    0.0006135 
C     3.6554487    1.8177573   -0.0004183 
H     4.1265907    2.7886257   -0.0007884 
C    -1.1560256   -1.7418675    0.0002672 
C     2.4844917   -0.7168410    0.0003603 
C    -3.5573299   -1.1820841   -0.0002110 
H    -3.7409845   -2.2452432   -0.0004753 
N    -0.6422776    1.0852109    0.0005391 
O    -1.3071240   -2.9484967    0.0001348 
C    -4.2845890    1.0981866    0.0000064 
H    -5.0890959    1.8188573   -0.0001080 
C     3.8735431   -0.5975089    0.0000341 
H     4.4742129   -1.4914765    0.0003566 
C    -1.9203726    0.6173820    0.0003110 
C     0.2941255    0.1796307    0.0005216 
C    -4.5816672   -0.2691203   -0.0003553 
H    -5.6086372   -0.5997568   -0.0008528 
C     4.4349947    0.6604997   -0.0004159 
H     5.5115916    0.7465002   -0.0007020 
C    -2.9859103    1.5346174    0.0004188 
H    -2.7436929    2.5857949    0.0006002 
C    -2.2298401   -0.7555781    0.0001259 
Cl    3.6952061   -3.7439963   -0.0013055 
