19
Energy =
H     2.1706812   -3.4047518    1.9749935 
H     2.5425108   -3.5855026   -1.6949882 
C     1.6650472   -3.9569637   -1.1646409 
C     1.4164582   -3.8379188    1.3173332 
C     0.8507064    0.1539409   -1.3239825 
C     0.6220689    0.2603653    0.9199502 
C     1.1207777   -1.1943643   -1.2938065 
C     0.8794427   -1.0816312    1.0731778 
C     1.1428451   -1.8646512   -0.0612136 
N     0.6019598    0.8927744   -0.2483283 
N     1.4030470   -3.1927758    0.0286943 
H     0.4191931    0.8678976    1.7922536 
H     0.8319352    0.6730098   -2.2724093 
H     1.3092294   -1.7124083   -2.2176771 
H     0.8733232   -1.5080599    2.0608633 
H     1.8473013   -4.9887842   -0.8920705 
H     1.6464922   -4.8876654    1.1858574 
H     0.4493116   -3.7617622    1.8152270 
H     0.8186268   -3.9316111   -1.8516098 
