44
Energy =
S    -0.0162970    1.5032672   -0.0057923 
O    -0.2048927    5.3035918   -0.2231126 
N    -0.7384027    3.0696629    0.0049019 
C     1.5342102    2.2115013   -0.3213887 
C     2.7480268    1.5557196   -0.4866930 
H     2.7978630    0.4828859   -0.4286127 
C     1.4628045    3.5952355   -0.4034616 
C     0.1197160    4.1339877   -0.2105461 
C     3.8698304    2.3204791   -0.7297740 
H     4.8199884    1.8260840   -0.8613600 
C    -2.1201815    3.1692287    0.2510323 
C     3.8051643    3.7110013   -0.8093262 
H     4.7015375    4.2789990   -0.9998000 
C     2.5982606    4.3528528   -0.6457993 
H     2.5046282    5.4261879   -0.6996624 
C    -2.8681621    4.2124149   -0.2849100 
H    -2.3820068    4.9678738   -0.8735879 
C    -2.7513107    2.1977671    1.0198313 
H    -2.1736731    1.3959022    1.4513850 
C    -4.1127389    2.2657677    1.2465085 
H    -4.5872753    1.5043305    1.8454261 
C    -4.2266709    4.2726517   -0.0403583 
H    -4.7970946    5.0874027   -0.4582878 
C    -4.8584602    3.3048342    0.7211483 
H    -5.9198828    3.3606342    0.9030439 
H     1.7383387   -5.9016340    1.6111382 
H     0.6011085   -5.8765813   -1.9141770 
C    -0.0723358   -5.9842584   -1.0633935 
C     0.6943281   -6.0014315    1.3126510 
C     0.5536588   -1.8364072   -1.1096959 
C     1.2492055   -1.8519915    1.0371991 
C     0.3445871   -3.1960608   -1.1169664 
C     1.0765603   -3.2123962    1.1486636 
C     0.6083556   -3.9391268    0.0435389 
N     1.0016111   -1.1498891   -0.0635549 
N     0.4198564   -5.2820534    0.0947093 
H     1.6076921   -1.2906065    1.8892339 
H     0.3432929   -1.2603994   -2.0003980 
H    -0.0212387   -3.6658235   -2.0131001 
H     1.3023023   -3.6953096    2.0832532 
H    -0.1548583   -7.0384144   -0.8304457 
H     0.4873846   -7.0528806    1.1579006 
H     0.0721691   -5.6504085    2.1367623 
H    -1.0569984   -5.6245909   -1.3641230 
