16
Energy =
Se    1.6944592    0.5384194    0.0000000 
Te   -1.5194862   -0.2591109    0.0000000 
C     1.9393452   -0.7271551   -1.4518183 
C     1.9393452   -0.7271551    1.4518183 
H     1.8006336   -0.1816108   -2.3775452 
H     2.9398918   -1.1407138   -1.4147713 
H     1.1951796   -1.5130258   -1.3817236 
H     1.8006336   -0.1816108    2.3775452 
H     1.1951796   -1.5130258    1.3817236 
H     2.9398918   -1.1407138    1.4147713 
C    -3.5543210   -0.6463034    0.0000000 
C    -1.8901119    1.8469454    0.0000000 
H    -0.9150113    2.3176487    0.0000000 
H    -2.4425574    2.1071099    0.8921127 
H    -2.4425574    2.1071099   -0.8921127 
N    -4.6805145   -0.8868081    0.0000000 
