28
Energy =
C    -3.7025902    2.1256796   -0.0105716 
C    -2.4234401    1.7473263   -0.3878912 
C    -2.0909000    0.4038912   -0.5160020 
C    -3.0320481   -0.5878628   -0.2718639 
C    -4.3013297   -0.1970978    0.0994162 
C    -4.6426169    1.1487463    0.2307890 
H    -3.9286798    3.1761678    0.0848198 
H    -2.7657288   -1.6265223   -0.3630314 
H    -5.0456687   -0.9535277    0.2946149 
H    -5.6441163    1.4199930    0.5236190 
N    -0.2334372    1.8850827   -1.0376922 
C    -1.3094910    2.6517570   -0.6674390 
O    -1.2876479    3.8662385   -0.5912334 
C     1.0712670    2.4493137   -1.3013379 
H     0.8915566    3.5103786   -1.4579234 
H     1.4674304    2.0273503   -2.2228439 
C     2.0351948    2.2329773   -0.1684375 
C     3.1923171    1.4935507   -0.3451497 
C     1.7561640    2.7680648    1.0828795 
C     4.0655449    1.2894252    0.7110616 
H     3.4114891    1.0724449   -1.3157020 
C     2.6240767    2.5638512    2.1377743 
H     0.8540122    3.3467359    1.2188935 
C     3.7819117    1.8236539    1.9540651 
H     4.9645432    0.7119480    0.5616185 
H     2.4013039    2.9857272    3.1053992 
H     4.4600817    1.6669452    2.7782605 
S    -0.4371970    0.1943730   -0.9908978 
