47
Energy =
Te   -0.5566444   -0.3096934    0.0154859 
C     1.1996519    3.5960095    0.3214579 
H     0.7480439    4.5695385    0.4278095 
N    -1.7151808    1.4146169    0.2295052 
C     0.3612651    2.4907461    0.2481997 
C     2.5654507    3.4294776    0.2581860 
H     3.2189981    4.2852081    0.3146502 
C    -3.0762353    1.2615596    0.2664550 
C     0.8947941    1.2070268    0.1085329 
C    -5.1887937    2.5289936    0.4655617 
H    -5.7096115    1.5870159    0.3985641 
N    -1.6953667    3.7517995    0.4420766 
O    -3.5617473    0.1426289    0.1798421 
C    -5.1392153    4.9136503    0.6839856 
H    -5.6689785    5.8478039    0.7909922 
C     2.2706627    1.0496325    0.0485028 
H     2.7040403    0.0710571   -0.0539399 
C    -3.0625094    3.7124482    0.4918697 
C    -1.0897913    2.6151250    0.3147741 
C    -5.8591816    3.7182408    0.6015664 
H    -6.9364790    3.7342310    0.6450418 
C     3.0978195    2.1540429    0.1227195 
H     4.1674605    2.0189710    0.0753264 
C    -3.7692316    4.9151913    0.6307085 
H    -3.2031346    5.8306157    0.6936867 
C    -3.7960108    2.5140587    0.4099762 
N     1.2328395   -2.2719723   -0.2724187 
H    -0.2678720   -3.1841918   -1.3693992 
H     1.4777020   -1.8275156   -2.2918188 
H     2.8974261   -1.5735736   -1.2992576 
H    -0.5126086   -3.2214537    0.3656829 
H     1.3900860   -2.7486992    1.7321005 
H     2.6515705   -1.6888068    1.1499623 
C     2.0663740   -2.2486521   -1.4810968 
C     0.2338668   -3.3412399   -0.4173234 
C     2.0655853   -2.5680791    0.8996467 
C     0.8988857   -4.7243671   -0.3514132 
C     2.5785058   -3.6603427   -1.8152265 
C     2.9647259   -3.7859279    0.6277553 
C     2.3944380   -4.5301672   -0.5757318 
H     0.4754999   -5.3828459   -1.1058938 
H     2.0246701   -4.0861611   -2.6500386 
H     3.6246776   -3.6220538   -2.1097389 
H     3.0004869   -4.4324100    1.5014231 
H     3.9862576   -3.4726682    0.4178524 
H     0.7259277   -5.1908135    0.6167933 
H     2.8908802   -5.4880544   -0.7033961 
