25
Energy =
Se    0.4463953   -1.8193379    0.0553039 
O     0.1344930    2.2354139   -0.1080762 
N    -0.4077840   -0.0094280   -0.0430904 
C     2.0411424   -0.8031138    0.0282223 
C     3.3358693   -1.3047888    0.0588161 
H     3.4941239   -2.3694539    0.1023713 
C     1.8324210    0.5710210   -0.0278600 
C     0.4420754    1.0481842   -0.0586626 
C     4.3964121   -0.4210003    0.0339329 
H     5.4028415   -0.8124178    0.0586042 
C    -1.7945222    0.0851525   -0.0343586 
C     4.1929485    0.9545592   -0.0221906 
H     5.0368815    1.6272640   -0.0411575 
C     2.9066036    1.4476314   -0.0534830 
H     2.6936647    2.5048183   -0.0982274 
C    -2.5526773   -0.9915771   -0.4991950 
H    -2.0492398   -1.8576230   -0.8980929 
C    -2.4706162    1.2065992    0.4550979 
H    -1.9011921    2.0475185    0.8044731 
C    -3.8518785    1.2329776    0.4727065 
H    -4.3520788    2.1105643    0.8552837 
C    -3.9327938   -0.9539052   -0.4693638 
H    -4.4905645   -1.8029364   -0.8350199 
C    -4.5970632    0.1592436    0.0150263 
H    -5.6755905    0.1901259    0.0345534 
