29
Energy =
C    -3.5812126    0.5115595   -0.2650364 
C    -2.3023922    0.0276385   -0.4940131 
C    -2.0347681   -1.3365328   -0.4093369 
C    -3.0541382   -2.2241665   -0.0911267 
C    -4.3229186   -1.7284449    0.1344986 
C    -4.5961941   -0.3658901    0.0501494 
H    -3.7416351    1.5762586   -0.3429536 
H    -2.8409149   -3.2786665   -0.0276154 
H    -5.1165596   -2.4182929    0.3815069 
H    -5.5963087   -0.0019227    0.2306661 
N    -0.0616923    0.1551693   -0.9870403 
C    -1.1716019    0.9029909   -0.8363555 
O    -1.2354166    2.1244246   -0.9665514 
C     1.1856629    0.7500363   -1.3536325 
H     0.9633549    1.7689694   -1.6736374 
H     1.6106436    0.2199880   -2.2079865 
C     2.2139626    0.7945133   -0.2506377 
C     3.5434449    1.0458135   -0.5629828 
C     1.8656209    0.6140954    1.0779650 
C     4.5035781    1.1267558    0.4283114 
H     3.8278608    1.1743940   -1.5981977 
C     2.8248674    0.6911326    2.0732407 
H     0.8385421    0.3980164    1.3249193 
C     4.1459972    0.9498261    1.7546887 
H     5.5329391    1.3198678    0.1657677 
H     2.5372188    0.5402323    3.1025624 
H     4.8933891    1.0043186    2.5314582 
Se   -0.2262514   -1.7783337   -0.7575756 
Br   -0.6050780   -4.5637507   -0.4310548 
