13
Energy =
Se   -1.9927838   -0.2843106    0.0000000 
F    -1.8559281    1.4538982    0.0000000 
F    -3.7562659   -0.2062834    0.0000000 
C     0.6734717   -0.1318931   -0.6030448 
C     0.6734717   -0.1318931    0.6030448 
C     0.7632951   -0.0963332   -2.0509144 
H     1.8025469   -0.0172962   -2.3614856 
H     0.3414286   -0.9951441   -2.4917934 
H     0.2217466    0.7590146   -2.4460896 
C     0.7632951   -0.0963332    2.0509144 
H     0.3414286   -0.9951441    2.4917934 
H     1.8025469   -0.0172962    2.3614856 
H     0.2217466    0.7590146    2.4460896 
